eil51
51
1 37 52
2 49 49
3 52 64
4 20 26
5 40 30
6 21 47
7 17 63
8 31 62
9 52 33
10 51 21
11 42 41
12 31 32
13 5 25
14 12 42
15 36 16
16 52 41
17 27 23
18 17 33
19 13 13
20 57 58
21 62 42
22 42 57
23 16 57
24 8 52
25 7 38
26 27 68
27 30 48
28 43 67
29 58 48
30 58 27
31 37 69
32 38 46
33 46 10
34 61 33
35 62 63
36 63 69
37 32 22
38 45 35
39 59 15
40 5 6
41 10 17
42 21 10
43 5 64
44 30 15
45 39 10
46 32 39
47 25 32
48 25 55
49 48 28
50 56 37
51 30 40
101
76
73
92
74
92
73
98
101
78
89
108
90
70
90
103
73
86
106
97
79
73
72
75
81
86
83
93
104
94
71
91
90
105
90
79
93
70
76
80
98
82
94
105
103
75
77
84
101
77
79
97
108
100
109
73
91
108
81
88
76
70
106
75
103
75
93
70
94
85
70
89
90
108
96
76
84
103
81
96
94
84
90
88
99
82
93
104
91
84
87
84
76
89
97
93
86
106
81
80
93
83
94
71
77
77
101
100
73
75
85
74
92
76
82
86
92
89
103
79
83
72
77
106
88
72
84
97
85
93
71
93
106
78
85
97
99
93
85
81
86
103
74
99
95
93
87
76
95
82
85
94
82
94
82
89
71
99
84
80
78
78
94
85
102
95
107
103
84
108
105
91
74
99
95
105
71
87
74
89
100
101
84
86
79
88
95
73
83
73
72
73
104
91
71
73
79
102
86
98
96
74
97
83
103
103
85
86
101
74
99
70
91
98
102
94
84
76
99
99
99
108
74
84
83
77
74
104
70
75
105
105
72
102
92
96
108
90
75
82
103
109
97
81
84
73
107
86
104
107
103
85
104
106
103
105
87
100
86
98
75
109
106
77
82
90
74
75
90
93
82
75
94
97
77
84
80
89
74
70
99
92
91
97
80
108
105
97
100
87
108
96
103
93
82
92
88
76
85
75
79
104
98
107
75
86
78
95
101
107
92
103
109
81
78
87
84
82
80
107
90
72
91
97
96
84
72
80
88
77
74
96
92
107
74
90
108
100
77
96
85
79
105
88
70
80
72
86
100
76
100
104
89
101
107
85
72
88
77
104
108
76
76
90
73
78
90
86
83
99
74
105
94
101
88
90
94
106
82
102
104
97
83
87
81
71
86
85
101
73
96
101
82
99
105
74
71
96
100
105
95
98
84
90
106
93
81
76
85
103
84
103
97
91
72
80
90
86
74
80
73
89
98
78
100
88
81
95
108
82
77
91
71
83
92
81
72
78
102
102
76
103
101
82
109
80
105
83
84
74
79
94
83
102
106
75
97
92
93
73
73
76
104
98
109
76
81
72
79
82
100
96
81
81
70
94
78
81
87
105
104
106
78
88
98
73
81
101
73
103
85
73
71
94
107
72
88
70
108
102
81
87
86
91
93
87
102
75
82
78
97
97
92
72
78
109
72
82
87
107
100
89
104
102
109
104
70
84
96
96
84
100
93
109
97
78
105
95
102
106
83
94
79
75
97
74
73
85
84
105
75
77
74
74
103
96
98
89
90
95
77
92
90
105
75
70
96
105
99
90
70
82
96
91
91
96
96
81
84
97
78
94
101
83
83
97
105
80
88
107
103
80
103
88
77
77
91
89
89
109
101
96
85
75
80
91
83
103
80
76
105
79
70
96
79
70
79
71
103
108
86
92
108
103
102
102
78
80
93
85
100
81
85
104
100
77
101
79
79
80
88
101
72
89
76
96
86
85
78
76
80
79
100
93
81
108
90
84
77
99
105
99
90
109
85
84
90
89
86
87
104
92
74
90
81
87
104
94
77
81
88
96
77
70
82
94
72
96
76
82
73
85
87
75
83
90
108
106
104
86
83
98
93
90
101
101
83
104
83
98
98
72
101
75
102
107
104
86
102
106
106
90
75
95
72
109
78
70
106
99
101
93
108
82
72
74
96
92
78
76
75
100
77
92
70
92
82
85
70
94
70
90
77
74
90
88
82
88
76
108
103
87
74
93
105
85
86
92
85
71
83
83
73
83
87
85
105
84
90
77
108
79
86
89
78
100
79
88
86
78
92
97
91
86
78
86
106
76
97
89
99
96
106
102
102
89
80
90
88
84
109
97
82
87
86
78
75
94
89
87
101
77
71
95
70
79
90
88
80
103
89
88
106
77
74
92
104
100
71
83
89
81
76
76
72
86
87
81
94
72
81
94
77
102
93
85
104
99
70
100
81
86
109
82
98
72
100
85
73
77
101
80
102
86
86
99
78
86
97
83
93
100
70
100
72
89
77
92
105
107
89
81
78
72
94
86
92
71
71
74
71
84
97
105
85
90
84
88
85
86
91
83
82
97
98
81
92
70
71
82
81
85
92
96
103
103
108
100
78
83
108
90
84
104
76
71
80
108
102
82
83
93
78
97
92
70
82
77
99
108
84
73
80
105
86
71
77
105
102
76
97
99
74
77
103
82
77
74
102
85
83
89
90
92
97
94
83
84
72
81
108
76
92
73
70
89
104
96
102
79
100
71
85
89
90
76
79
91
85
72
103
109
75
70
96
99
77
105
70
91
100
77
87
102
78
73
92
83
89
75
76
89
96
108
91
83
100
93
70
73
108
107
99
100
95
104
79
105
89
82
71
75
101
95
83
74
99
73
88
96
82
70
102
70
87
99
89
82
71
75
83
84
73
106
82
90
95
103
109
104
94
97
101
107
92
73
98
104
90
73
92
96
99
75
99
88
108
109
81
78
91
99
94
70
93
86
108
70
90
100
76
102
84
103
88
77
89
106
83
87
92
90
70
75
75
105
77
101
100
73
89
103
90
71
87
93
103
85
89
73
73
109
107
84
82
99
104
103
107
91
102
89
97
98
88
89
75
97
99
102
98
71
91
109
81
86
78
91
88
90
97
99
76
77
90
90
89
94
102
74
98
98
100
108
96
108
105
97
82
106
85
83
76
72
86
103
75
97
75
70
95
82
108
100
106
105
97
104
80
70
80
101
87
74
99
105
90
93
88
92
89
92
91
83
90
91
81
86
94
102
71
95
109
87
98
84
75
107
80
78
72
78
79
82
106
80
92
80
78
87
95
75
79
87
101
80
85
88
78
74
90
71
72
109
73
80
84
74
104
90
103
91
88
91
92
71
106
102
87
104
77
89
101
99
109
