pr76
76
1 3600 2300
2 3100 3300
3 4700 5750
4 5400 5750
5 5608 7103
6 4493 7102
7 3600 6950
8 3100 7250
9 4700 8450
10 5400 8450
11 5610 10053
12 4492 10052
13 3600 10800
14 3100 10950
15 4700 11650
16 5400 11650
17 6650 10800
18 7300 10950
19 7300 7250
20 6650 6950
21 7300 3300
22 6650 2300
23 5400 1600
24 8350 2300
25 7850 3300
26 9450 5750
27 10150 5750
28 10358 7103
29 9243 7102
30 8350 6950
31 7850 7250
32 9450 8450
33 10150 8450
34 10360 10053
35 9242 10052
36 8350 10800
37 7850 10950
38 9450 11650
39 10150 11650
40 11400 10800
41 12050 10950
42 12050 7250
43 11400 6950
44 12050 3300
45 11400 2300
46 10150 1600
47 13100 2300
48 12600 3300
49 14200 5750
50 14900 5750
51 15108 7103
52 13993 7102
53 13100 6950
54 12600 7250
55 14200 8450
56 14900 8450
57 15110 10053
58 13992 10052
59 13100 10800
60 12600 10950
61 14200 11650
62 14900 11650
63 16150 10800
64 16800 10950
65 16800 7250
66 16150 6950
67 16800 3300
68 16150 2300
69 14900 1600
70 19800 800
71 19800 10000
72 19800 11900
73 19800 12200
74 200 12200
75 200 1100
76 200 800
78
79
70
108
83
78
87
84
88
101
77
103
78
93
72
77
74
89
97
106
109
88
77
94
71
71
73
90
79
105
104
88
95
104
83
90
86
97
97
102
101
98
71
81
102
95
97
81
81
86
81
87
89
72
87
77
87
89
75
100
93
73
95
106
94
108
72
90
108
71
78
107
74
84
106
102
108
72
80
106
75
91
109
74
77
79
82
74
92
84
74
102
101
84
81
108
77
75
101
106
79
89
89
83
105
83
87
86
80
86
86
87
104
78
84
98
73
70
70
94
78
88
70
70
80
88
109
78
98
100
81
108
94
87
88
76
89
70
101
73
98
106
82
81
96
95
87
96
85
101
74
79
77
93
80
95
92
78
75
104
71
96
109
95
105
80
107
96
89
78
93
88
90
92
101
86
84
104
70
83
81
107
87
103
106
107
72
86
98
101
100
99
107
71
72
108
80
70
107
86
91
91
87
90
80
108
71
72
90
96
96
75
101
90
85
102
91
97
101
109
90
95
72
103
86
81
107
73
91
71
96
71
102
109
74
95
109
73
87
79
75
94
78
80
105
104
107
98
97
80
104
99
93
74
79
82
96
70
77
89
74
92
73
106
82
100
78
88
71
92
109
97
88
75
71
91
93
78
81
93
101
104
73
80
105
96
71
94
73
93
88
105
85
101
95
95
71
71
108
76
72
85
90
72
103
79
100
91
81
92
96
79
93
81
103
101
96
79
75
74
73
72
89
75
109
98
89
70
109
103
100
91
70
84
78
84
82
81
92
89
85
73
96
70
107
83
74
89
104
71
105
103
96
85
106
94
96
82
88
80
92
77
77
102
83
105
72
99
72
107
80
75
90
103
96
84
70
101
99
92
107
90
89
99
94
77
91
74
95
71
100
108
84
78
72
100
93
108
81
87
96
91
96
99
86
100
81
73
93
89
90
103
103
103
77
104
107
72
91
104
91
95
84
83
102
101
109
109
102
108
73
80
108
98
107
73
83
81
82
107
98
77
102
73
70
109
106
78
104
109
107
71
82
75
96
75
104
81
107
82
93
98
71
76
83
104
97
99
71
102
92
76
108
90
88
82
87
109
99
107
75
93
106
79
78
91
98
94
99
73
90
74
82
102
83
101
77
101
91
83
84
106
94
107
91
71
103
106
98
79
101
73
102
97
97
73
102
102
79
100
80
86
83
101
85
96
70
106
106
73
89
97
88
71
105
81
103
94
76
90
87
91
99
72
79
87
104
92
105
102
90
83
109
104
70
107
70
104
80
84
82
107
99
99
77
75
109
85
72
93
78
89
94
104
83
102
80
71
86
96
73
89
88
93
100
95
74
77
101
109
80
89
85
76
95
107
82
79
89
103
78
109
70
72
103
79
85
77
95
91
84
70
101
96
92
90
92
82
96
106
82
80
87
100
99
84
88
96
71
75
86
79
105
102
92
86
98
96
98
101
70
106
105
108
109
107
100
80
108
107
79
107
85
89
76
90
76
91
92
91
84
95
75
94
106
72
79
91
95
75
90
100
108
83
78
85
81
89
96
81
70
104
80
87
86
96
72
77
105
73
91
91
73
91
81
83
95
99
72
87
94
88
108
76
104
87
98
86
105
108
105
100
97
74
99
86
109
93
107
76
80
77
78
96
94
86
71
86
97
94
70
107
104
87
105
92
100
94
94
81
109
106
95
98
93
73
95
80
107
79
76
87
82
73
101
90
83
73
86
96
73
74
106
102
75
71
96
93
103
87
89
93
77
108
105
98
82
108
76
102
70
72
99
103
80
107
95
98
96
76
102
104
109
96
99
88
89
97
106
78
105
108
76
90
105
74
88
92
88
93
75
95
80
78
98
99
88
100
85
103
101
87
86
70
71
77
106
82
72
93
103
79
98
107
79
89
81
100
107
72
79
82
100
75
79
82
70
91
108
91
71
106
91
90
102
91
77
92
87
75
98
83
78
80
99
77
81
81
94
89
91
87
103
84
95
91
101
75
90
104
107
90
92
81
104
92
71
102
105
100
73
99
85
91
87
98
90
90
91
91
94
107
80
104
80
75
82
86
72
107
99
105
108
103
92
78
77
102
89
79
90
84
104
83
83
100
91
84
72
106
92
93
91
88
73
100
83
87
104
76
98
80
108
78
73
75
96
97
75
72
107
87
88
77
102
74
83
104
74
79
101
92
109
81
99
105
86
89
102
87
95
109
90
99
83
95
81
94
104
80
104
90
70
101
98
95
72
104
92
85
83
81
82
106
85
103
104
86
88
81
106
101
71
74
96
100
96
85
84
80
83
77
70
108
106
73
82
106
97
86
80
108
71
76
93
98
85
109
80
102
71
108
80
103
105
107
100
75
77
87
82
97
98
104
76
85
78
99
71
77
79
90
70
108
94
88
80
85
77
93
109
75
74
96
78
102
85
70
101
72
103
94
83
104
84
103
89
103
90
92
81
81
106
87
86
103
102
107
97
75
92
70
78
99
98
71
86
81
90
77
70
98
80
81
71
102
90
92
79
96
79
91
105
103
91
98
80
91
82
95
74
99
91
81
99
79
79
73
78
82
73
87
108
98
80
96
86
75
99
86
93
89
93
73
101
77
90
77
100
105
96
76
105
87
73
93
83
103
104
100
104
95
73
108
88
73
71
99
104
103
104
86
83
82
107
92
94
107
102
79
107
105
105
88
72
77
103
106
96
106
77
90
83
106
75
93
106
100
84
107
78
82
73
107
81
90
90
87
108
99
95
88
75
91
100
93
78
70
100
73
105
90
79
98
103
105
103
97
106
94
87
95
70
91
101
101
79
83
82
95
104
99
95
105
85
79
82
90
83
90
89
104
94
109
78
77
108
76
108
89
89
94
97
103
73
76
93
92
77
107
82
94
104
101
75
81
90
84
106
80
95
73
85
105
96
84
81
106
82
93
74
99
101
83
74
92
104
99
72
97
91
99
106
83
102
95
102
72
72
75
85
78
98
82
73
100
77
71
97
105
81
90
83
81
95
102
89
77
98
73
103
75
89
91
83
86
96
82
78
87
72
76
74
76
92
87
85
96
102
70
93
106
81
101
92
83
72
87
71
98
86
85
73
91
80
90
77
88
72
93
75
93
91
79
106
98
93
94
104
109
83
88
102
70
90
108
104
95
87
86
91
76
78
89
87
95
78
106
95
104
100
82
94
106
72
100
109
73
85
72
99
75
109
87
100
100
108
88
76
95
75
106
102
82
72
107
104
89
76
97
98
94
102
79
87
71
94
98
82
72
100
92
101
99
82
105
70
93
71
104
83
75
94
100
79
92
86
76
109
73
99
104
93
106
109
109
101
99
71
90
98
103
91
100
103
76
84
103
84
71
76
86
107
105
103
101
71
91
103
92
86
101
74
87
89
93
105
84
89
78
74
76
84
87
104
78
96
102
81
81
87
85
73
104
108
83
70
83
78
94
99
99
90
79
88
85
77
94
106
108
82
97
103
96
97
79
109
107
105
98
91
78
95
100
72
79
103
96
98
78
91
109
74
97
74
87
71
92
98
102
80
92
73
91
86
78
96
71
88
75
90
95
89
88
99
102
79
91
108
97
93
96
94
104
84
85
85
83
86
106
104
100
75
94
94
92
79
94
90
88
99
94
82
93
74
109
92
97
96
84
82
109
86
79
81
88
73
88
92
77
84
80
70
96
91
104
72
108
82
103
87
97
108
108
89
108
72
94
106
104
89
90
98
100
78
93
81
76
73
106
71
84
91
94
85
82
88
91
79
92
71
106
86
106
93
100
73
93
82
107
92
104
108
76
108
78
83
104
105
85
77
91
85
97
90
92
84
99
82
95
108
99
102
71
71
108
77
88
71
79
80
75
82
83
80
91
70
76
102
97
87
89
83
107
102
107
73
98
84
82
90
75
103
82
95
94
100
70
76
86
86
99
98
96
85
97
85
95
107
101
95
87
107
74
76
105
75
90
96
79
108
71
102
105
95
71
107
102
90
88
97
78
108
88
88
80
85
96
98
72
81
81
78
84
70
96
97
102
108
86
71
92
93
99
103
71
109
108
88
81
100
83
94
82
89
102
98
100
73
74
81
94
105
97
84
102
80
97
104
107
88
96
78
89
86
109
78
78
72
73
103
109
96
109
74
105
86
85
88
100
74
94
81
104
82
100
87
102
104
79
83
77
72
95
86
94
97
78
89
86
105
84
89
91
70
105
101
90
91
86
99
104
95
77
83
79
108
90
97
76
103
98
104
103
107
91
93
91
99
76
90
86
72
71
84
99
71
108
72
86
103
96
105
95
81
93
85
83
97
76
72
88
76
96
73
104
74
93
92
95
94
105
96
80
84
74
82
76
99
80
89
101
107
100
91
107
88
88
80
108
103
89
102
89
72
75
109
71
109
84
108
107
74
100
90
82
70
107
90
104
97
76
73
71
102
104
98
98
107
78
108
82
78
105
90
105
106
74
75
101
99
81
75
87
86
102
90
93
101
100
107
109
90
104
80
83
105
78
108
109
74
102
81
109
95
93
100
70
107
78
77
106
92
82
99
107
75
70
79
97
74
108
95
84
93
77
103
107
107
94
75
76
86
72
88
84
81
100
75
105
107
94
74
78
74
89
98
71
89
108
73
78
100
92
101
93
91
106
84
101
85
78
70
86
79
84
71
104
70
94
105
90
73
90
98
96
106
85
74
98
103
104
96
107
100
91
77
72
99
95
105
82
94
96
84
77
108
99
80
105
107
107
109
72
86
83
85
74
95
87
106
94
109
107
92
82
105
105
71
92
86
109
92
82
72
83
103
79
86
84
81
103
82
84
71
93
89
103
99
82
70
86
97
81
84
100
85
73
76
78
99
83
91
75
103
76
72
80
94
85
77
103
92
105
91
80
71
103
75
72
100
89
98
74
73
92
108
108
91
105
93
83
105
107
76
89
97
98
88
86
73
87
72
76
80
89
102
96
86
103
91
102
97
103
105
108
89
79
92
98
103
106
91
71
105
93
70
80
89
106
104
77
80
84
71
100
109
93
106
107
82
93
90
72
80
92
83
75
73
81
101
102
95
99
87
75
108
72
83
87
97
109
88
77
75
86
107
79
98
102
71
73
84
97
79
94
90
103
98
95
73
76
79
72
84
70
80
77
104
78
83
102
72
91
94
71
74
75
108
75
73
108
86
106
84
82
107
104
104
73
91
72
81
102
88
97
79
73
71
104
102
101
77
93
78
100
109
106
85
76
81
98
81
86
87
95
107
73
70
87
96
74
96
87
90
96
75
104
86
109
99
97
87
71
90
77
91
87
107
95
100
81
75
99
74
78
73
87
87
94
71
106
92
82
105
83
90
98
86
85
91
98
93
98
89
106
90
77
71
93
81
101
71
74
105
71
76
90
77
74
74
73
79
89
82
97
86
108
90
75
98
89
92
71
76
82
78
71
108
86
74
94
102
76
79
70
76
100
87
83
82
81
74
98
77
109
76
79
86
75
106
101
94
99
99
94
74
89
100
77
72
103
92
98
82
84
82
71
84
76
84
105
105
107
73
97
106
77
105
75
97
103
107
70
91
107
103
85
92
71
85
102
80
88
70
81
79
94
98
75
72
79
73
100
97
96
86
77
70
81
72
78
104
81
91
103
88
105
103
109
100
109
80
72
97
81
70
91
106
105
101
83
80
108
103
83
107
89
73
79
80
89
75
88
75
103
92
72
102
94
109
86
90
83
93
108
70
99
77
95
78
77
85
95
85
75
103
71
79
84
73
71
104
86
97
97
73
75
100
97
100
98
72
96
85
79
100
90
92
101
100
94
97
99
88
102
103
92
95
89
100
76
88
85
103
71
106
72
75
108
85
97
75
91
88
74
78
83
92
106
70
79
97
104
83
98
96
74
85
96
81
71
82
102
85
105
85
109
94
79
72
83
78
105
75
107
101
102
109
86
103
75
82
106
78
85
85
82
92
81
72
78
75
97
91
100
104
98
97
95
101
84
89
87
71
81
99
73
87
98
105
73
93
70
104
109
105
77
79
99
92
108
80
70
95
81
92
93
97
97
76
93
79
96
85
104
71
97
84
101
71
71
98
98
100
92
97
96
92
79
96
102
95
75
76
73
108
93
104
74
96
70
77
71
93
91
93
87
80
97
77
72
83
101
105
108
77
106
109
84
94
100
81
74
79
93
84
101
81
70
101
73
86
81
85
86
109
76
73
106
97
81
71
73
108
99
94
108
104
91
99
103
87
84
73
96
107
108
73
101
80
108
83
76
73
90
76
81
72
101
72
84
74
72
105
73
106
75
88
92
101
102
76
84
79
95
73
71
107
70
75
94
80
87
91
83
74
88
97
72
95
100
107
82
100
103
108
70
102
99
96
75
109
106
87
88
109
101
105
79
88
100
105
82
81
95
101
84
82
77
92
92
104
98
89
78
93
78
87
74
86
84
102
105
86
80
77
109
91
109
