d198
198
1 0.00000e+00 0.00000e+00
2 5.51200e+02 9.96400e+02
3 6.27400e+02 9.96400e+02
4 7.03600e+02 9.96400e+02
5 7.03600e+02 1.04720e+03
6 6.27400e+02 1.04720e+03
7 5.51200e+02 1.04720e+03
8 8.81400e+02 1.35200e+03
9 9.32200e+02 1.35200e+03
10 9.57600e+02 1.35200e+03
11 9.83000e+02 1.35200e+03
12 1.00840e+03 1.35200e+03
13 1.03380e+03 1.35200e+03
14 1.31320e+03 1.12340e+03
15 1.28780e+03 1.09800e+03
16 1.28780e+03 9.96400e+02
17 1.31320e+03 9.96400e+02
18 1.46560e+03 9.96400e+02
19 1.51640e+03 9.96400e+02
20 1.59260e+03 9.96400e+02
21 1.59260e+03 1.09800e+03
22 1.51640e+03 1.09800e+03
23 1.46560e+03 1.09800e+03
24 1.56720e+03 1.12340e+03
25 1.59260e+03 1.14880e+03
26 1.56720e+03 1.17420e+03
27 1.54180e+03 1.17420e+03
28 1.49100e+03 1.17420e+03
29 1.44020e+03 1.17420e+03
30 1.46560e+03 1.19960e+03
31 1.41480e+03 1.22500e+03
32 1.44020e+03 1.22500e+03
33 1.49100e+03 1.22500e+03
34 1.51640e+03 1.22500e+03
35 1.59260e+03 1.25040e+03
36 1.46560e+03 1.25040e+03
37 1.44020e+03 1.25040e+03
38 1.38940e+03 1.25040e+03
39 1.54180e+03 1.27580e+03
40 1.16080e+03 1.12340e+03
41 1.16080e+03 1.22500e+03
42 1.26240e+03 1.30120e+03
43 1.28780e+03 1.30120e+03
44 1.33860e+03 1.30120e+03
45 1.41480e+03 1.30120e+03
46 1.49100e+03 1.30120e+03
47 1.54180e+03 1.30120e+03
48 1.64340e+03 1.30120e+03
49 1.66880e+03 1.32660e+03
50 1.61800e+03 1.32660e+03
51 1.56720e+03 1.32660e+03
52 1.51640e+03 1.32660e+03
53 1.46560e+03 1.32660e+03
54 1.41480e+03 1.32660e+03
55 1.33860e+03 1.32660e+03
56 1.31320e+03 1.32660e+03
57 1.23700e+03 1.32660e+03
58 1.23700e+03 1.35200e+03
59 1.31320e+03 1.35200e+03
60 1.33860e+03 1.35200e+03
61 1.41480e+03 1.35200e+03
62 1.46560e+03 1.35200e+03
63 1.69420e+03 1.35200e+03
64 1.61800e+03 1.37740e+03
65 1.51640e+03 1.37740e+03
66 1.41480e+03 1.37740e+03
67 1.33860e+03 1.37740e+03
68 1.31320e+03 1.37740e+03
69 1.23700e+03 1.37740e+03
70 1.35770e+03 1.39010e+03
71 1.23700e+03 1.40280e+03
72 1.31320e+03 1.40280e+03
73 1.33860e+03 1.40280e+03
74 1.41480e+03 1.40280e+03
75 1.46560e+03 1.40280e+03
76 1.56720e+03 1.40280e+03
77 1.59260e+03 1.40280e+03
78 1.61800e+03 1.40280e+03
79 1.69420e+03 1.42820e+03
80 1.66880e+03 1.42820e+03
81 1.54180e+03 1.42820e+03
82 1.44020e+03 1.42820e+03
83 1.41480e+03 1.42820e+03
84 1.33860e+03 1.42820e+03
85 1.26240e+03 1.42820e+03
86 1.23700e+03 1.45360e+03
87 1.33860e+03 1.45360e+03
88 1.41480e+03 1.45360e+03
89 1.46560e+03 1.45360e+03
90 1.49100e+03 1.45360e+03
91 1.66880e+03 1.45360e+03
92 1.69420e+03 1.45360e+03
93 1.61800e+03 1.47900e+03
94 1.59260e+03 1.47900e+03
95 1.56720e+03 1.47900e+03
96 1.51640e+03 1.47900e+03
97 1.44020e+03 1.47900e+03
98 1.41480e+03 1.47900e+03
99 1.33860e+03 1.47900e+03
100 1.26240e+03 1.47900e+03
101 1.59260e+03 1.50440e+03
102 1.61800e+03 1.50440e+03
103 1.66880e+03 1.52980e+03
104 1.69420e+03 1.52980e+03
105 1.74500e+03 1.52980e+03
106 1.82120e+03 1.52980e+03
107 1.84660e+03 1.52980e+03
108 1.94820e+03 1.52980e+03
109 1.92280e+03 1.55520e+03
110 1.89740e+03 1.55520e+03
111 1.87200e+03 1.55520e+03
112 1.82120e+03 1.55520e+03
113 1.79580e+03 1.55520e+03
114 1.77040e+03 1.55520e+03
115 1.77040e+03 1.65680e+03
116 1.79580e+03 1.65680e+03
117 1.82120e+03 1.65680e+03
118 1.87200e+03 1.65680e+03
119 1.89740e+03 1.65680e+03
120 1.92280e+03 1.65680e+03
121 1.80850e+03 1.69490e+03
122 1.75770e+03 1.69490e+03
123 1.88470e+03 1.73300e+03
124 1.99900e+03 1.73300e+03
125 2.07520e+03 1.73300e+03
126 2.11330e+03 1.73300e+03
127 2.17680e+03 1.73300e+03
128 2.23650e+03 1.73300e+03
129 2.17680e+03 1.78380e+03
130 2.12600e+03 1.78380e+03
131 2.10060e+03 1.78380e+03
132 2.10060e+03 1.80920e+03
133 2.12600e+03 1.80920e+03
134 2.10060e+03 1.83460e+03
135 2.12600e+03 1.83460e+03
136 2.15140e+03 1.83460e+03
137 2.23650e+03 1.84730e+03
138 1.99900e+03 1.84730e+03
139 1.88470e+03 1.84730e+03
140 2.10060e+03 1.86000e+03
141 2.12600e+03 1.86000e+03
142 2.10060e+03 1.88540e+03
143 2.12600e+03 1.88540e+03
144 2.17680e+03 1.88540e+03
145 2.15140e+03 1.91080e+03
146 2.12600e+03 1.91080e+03
147 2.10060e+03 1.91080e+03
148 2.10060e+03 1.93620e+03
149 2.12600e+03 1.93620e+03
150 2.17680e+03 1.93620e+03
151 2.22760e+03 1.93620e+03
152 2.12600e+03 1.96160e+03
153 2.10060e+03 1.96160e+03
154 1.79580e+03 1.98700e+03
155 1.82120e+03 1.98700e+03
156 1.84660e+03 1.98700e+03
157 1.87200e+03 1.98700e+03
158 1.89740e+03 1.98700e+03
159 1.94820e+03 1.98700e+03
160 2.05620e+03 1.98700e+03
161 2.10060e+03 1.98700e+03
162 2.12600e+03 1.98700e+03
163 2.25300e+03 1.98700e+03
164 2.30380e+03 1.98700e+03
165 2.38000e+03 1.98700e+03
166 2.40540e+03 1.98700e+03
167 2.02440e+03 1.40280e+03
168 2.15140e+03 1.40280e+03
169 2.07520e+03 1.70760e+03
170 2.17680e+03 1.70760e+03
171 2.35080e+03 1.73300e+03
172 2.35080e+03 1.84730e+03
173 3.65210e+03 1.01030e+03
174 3.72570e+03 1.01030e+03
175 3.72570e+03 1.08650e+03
176 3.65210e+03 1.08650e+03
177 3.72620e+03 1.14880e+03
178 3.80240e+03 1.14880e+03
179 3.85320e+03 1.14880e+03
180 3.80240e+03 1.17420e+03
181 3.70080e+03 1.17420e+03
182 3.60560e+03 1.19960e+03
183 3.70080e+03 1.19960e+03
184 3.80240e+03 1.19960e+03
185 3.85320e+03 1.19960e+03
186 4.02830e+03 1.31030e+03
187 3.95210e+03 1.31030e+03
188 3.72830e+03 1.31030e+03
189 3.65210e+03 1.31030e+03
190 3.65210e+03 1.38650e+03
191 3.72830e+03 1.38650e+03
192 3.95210e+03 1.38650e+03
193 4.02830e+03 1.38650e+03
194 3.85320e+03 1.12340e+03
195 3.95210e+03 1.08650e+03
196 4.02830e+03 1.08650e+03
197 4.02830e+03 1.01030e+03
198 3.95210e+03 1.01030e+03
86
76
84
75
83
77
88
86
81
91
105
74
101
79
94
101
100
91
101
72
101
74
93
77
72
76
73
73
70
103
79
93
80
99
82
79
77
100
86
87
70
78
74
95
93
76
82
81
94
97
93
72
100
75
108
72
94
108
93
79
76
107
94
72
101
106
102
109
74
97
105
85
105
92
106
87
74
97
102
70
94
108
94
109
98
86
85
77
78
75
83
84
82
83
81
88
107
75
102
77
91
85
74
91
79
93
81
99
85
94
74
83
77
108
88
80
71
107
72
76
109
80
100
81
83
95
72
85
108
93
99
102
103
102
89
95
74
82
102
75
77
107
101
97
106
82
90
105
83
82
93
95
77
109
88
101
84
87
98
70
87
104
94
72
102
109
93
81
81
73
75
78
90
72
89
87
109
84
86
95
87
76
107
83
109
73
103
105
87
99
81
75
77
100
108
76
72
82
96
74
84
75
78
92
100
93
84
86
71
76
82
99
90
71
100
91
86
100
81
85
75
99
107
86
109
81
88
74
86
102
72
74
92
81
88
87
92
82
95
78
103
104
71
77
92
100
78
108
79
70
85
88
73
87
97
92
87
87
96
89
87
87
102
72
72
89
89
85
97
71
106
102
93
82
85
107
78
100
98
105
88
87
77
82
79
103
74
96
83
102
86
106
91
103
90
77
88
77
73
86
76
76
76
71
82
72
108
88
79
93
72
104
81
87
71
92
95
76
96
80
106
94
104
100
91
100
76
80
109
76
87
99
83
106
103
104
93
76
75
74
79
89
71
90
91
95
92
70
105
76
73
108
83
87
71
96
86
80
107
98
78
85
93
91
88
95
89
89
78
93
75
82
95
103
73
94
93
85
100
95
75
72
102
85
79
89
106
93
100
82
105
98
91
74
89
103
83
109
91
108
70
98
108
95
102
70
84
108
72
82
102
96
95
73
79
75
92
85
83
108
94
82
92
105
100
90
76
79
98
74
85
103
76
93
78
98
108
88
105
94
82
102
107
73
109
109
76
77
77
89
96
85
106
95
93
87
74
85
86
74
103
96
103
74
72
85
97
82
82
84
88
89
85
90
84
81
91
78
101
92
79
87
82
79
75
107
84
75
100
83
78
81
74
109
72
94
106
98
101
72
94
90
105
104
89
76
79
88
99
99
89
71
76
109
89
106
70
77
96
86
83
76
86
75
97
91
89
91
75
76
81
75
75
98
75
105
100
102
100
79
77
92
97
103
106
101
93
96
85
85
91
87
78
104
108
89
102
97
82
72
82
83
102
84
86
108
80
100
80
79
93
70
103
104
101
83
100
77
70
102
79
83
75
95
101
103
89
106
72
71
83
85
96
80
108
75
105
88
78
74
77
86
80
100
99
81
77
92
87
79
75
103
101
104
73
85
96
81
93
103
104
77
84
108
100
89
107
87
99
94
102
75
97
77
87
98
72
78
105
82
93
82
109
73
93
82
93
82
96
71
95
104
101
75
109
75
78
103
91
97
100
103
80
94
78
91
80
71
95
71
80
84
86
78
76
76
81
82
79
101
108
71
97
92
71
73
77
82
70
74
107
72
85
105
99
84
107
80
92
84
70
84
100
74
80
98
80
105
73
104
70
71
100
90
105
92
102
71
85
90
77
75
108
85
85
109
105
108
97
100
90
73
80
109
83
101
77
80
105
104
91
77
99
88
97
73
88
103
75
93
101
74
106
88
86
103
77
92
96
79
87
87
92
109
90
75
78
85
76
103
102
72
97
71
78
79
82
74
86
70
77
99
77
75
109
83
81
87
99
84
97
77
109
89
72
96
70
76
92
82
70
72
88
90
91
80
71
77
103
103
107
88
85
82
77
77
71
106
85
101
97
103
108
77
99
106
79
99
99
73
79
75
73
97
103
85
87
86
78
97
81
103
70
70
105
80
84
103
71
87
89
104
103
75
104
71
82
106
89
78
73
75
101
88
79
75
107
90
103
107
75
92
71
89
105
104
75
78
75
90
77
97
86
88
83
82
79
108
89
97
78
80
89
104
95
98
88
102
92
88
91
78
85
85
97
71
74
85
99
93
90
109
105
96
101
102
95
91
95
92
72
88
77
98
74
82
85
105
75
106
73
80
89
79
109
85
72
72
74
101
103
99
81
73
100
100
84
106
74
86
97
78
88
77
72
107
84
87
87
100
104
88
108
98
99
109
75
84
83
76
89
98
105
106
88
94
101
84
91
76
109
107
109
83
104
81
101
100
72
81
77
75
71
70
91
109
72
82
95
81
98
83
86
97
73
81
71
99
109
98
92
90
87
105
75
91
73
109
93
77
109
86
86
72
105
102
79
73
89
101
105
93
85
93
91
85
85
87
101
80
91
86
93
103
96
90
90
101
105
80
88
77
91
80
107
105
85
70
88
88
85
78
88
87
101
106
94
83
103
78
99
86
71
102
79
89
80
78
99
89
82
97
93
93
99
86
92
86
107
72
85
71
84
93
101
72
105
74
96
94
70
109
97
93
73
83
74
72
96
83
71
72
91
74
102
92
91
104
81
80
83
83
88
89
78
90
80
71
98
93
89
76
99
92
87
76
98
109
70
78
71
98
76
106
85
74
89
91
94
70
98
103
70
103
103
84
100
86
81
101
70
100
96
101
93
99
92
84
81
100
99
72
70
75
106
94
79
96
71
97
73
88
94
90
84
91
99
80
85
95
80
74
95
109
71
107
76
74
106
100
71
105
88
105
91
102
91
77
73
86
72
87
70
78
95
105
75
81
84
94
89
94
92
101
85
89
108
91
96
73
79
77
90
90
78
78
88
100
85
102
84
75
108
84
108
96
99
93
85
88
97
86
97
84
87
86
78
105
96
103
90
96
84
79
84
97
85
106
77
91
89
74
78
95
106
105
91
94
91
86
89
96
76
95
108
95
79
78
76
83
75
95
97
87
97
97
109
84
85
83
72
101
103
80
74
106
91
70
92
105
86
84
80
81
91
106
74
89
77
101
79
81
85
75
70
71
101
91
83
77
102
81
107
104
95
73
77
76
104
74
94
103
70
78
104
75
87
94
92
72
80
90
85
74
101
106
103
86
90
103
80
98
87
101
94
70
73
109
81
70
95
94
90
81
73
76
107
95
72
108
105
78
106
102
72
85
109
100
94
77
70
90
75
85
106
95
79
94
84
107
93
102
88
73
70
88
72
79
97
83
78
99
105
74
81
89
72
76
83
82
107
109
82
71
109
85
77
70
72
79
98
92
97
85
77
100
108
98
83
103
73
72
80
108
93
91
86
82
75
86
88
100
100
100
94
84
101
106
105
75
104
75
73
71
86
108
92
94
84
89
98
83
107
79
95
87
100
75
89
89
75
75
91
97
83
76
82
73
83
108
101
101
80
89
90
85
83
105
70
80
84
83
85
99
87
86
100
75
78
73
90
103
87
99
86
82
96
100
109
95
96
75
83
109
87
73
84
85
104
77
91
106
86
90
91
73
86
87
100
89
84
85
89
100
104
78
103
102
89
107
104
94
106
79
81
90
85
75
73
96
70
81
91
107
73
93
109
99
71
96
90
80
108
87
77
87
92
92
96
86
96
99
83
93
99
96
72
77
99
103
79
86
100
84
94
100
78
76
107
81
82
107
109
81
88
95
72
81
102
77
103
89
100
91
70
84
107
94
88
94
71
77
87
102
98
93
107
76
76
87
93
100
96
103
84
91
96
109
96
89
91
73
100
88
86
107
105
109
89
89
97
100
75
109
105
96
97
70
99
108
107
70
83
75
103
75
72
95
83
106
109
80
85
73
97
107
109
99
84
109
77
74
83
104
79
71
109
86
80
86
103
107
84
89
84
72
106
81
81
84
73
108
105
86
91
83
77
73
105
99
94
103
103
87
109
81
98
108
75
101
95
85
76
98
109
80
106
104
78
80
79
75
98
108
83
74
77
72
95
83
82
75
104
81
96
81
72
96
100
74
90
88
78
99
101
104
96
107
75
101
101
88
74
108
95
83
74
76
76
105
72
104
105
83
82
107
71
105
100
84
93
91
99
93
94
96
81
70
109
106
88
103
70
105
97
102
79
103
103
94
103
108
104
105
77
84
108
102
84
101
89
86
70
85
102
100
70
92
103
100
107
101
88
94
74
75
94
74
98
82
82
109
78
99
87
85
102
84
78
82
88
71
95
78
70
106
107
86
95
71
104
105
82
85
101
88
95
70
87
95
81
74
83
108
90
101
108
93
85
100
103
78
82
70
93
99
77
88
90
83
80
89
100
78
106
104
77
72
96
106
93
70
99
73
89
88
82
81
80
80
97
101
72
107
74
89
93
109
75
105
98
74
73
82
91
106
108
95
105
108
106
72
103
102
80
70
94
108
70
97
76
71
75
77
106
80
81
74
93
78
105
84
84
108
106
91
92
102
87
75
97
109
79
102
79
80
89
88
72
86
94
92
78
74
105
70
82
102
77
96
70
75
79
88
105
80
108
74
73
89
75
74
101
98
86
77
91
100
109
81
96
102
107
74
94
72
101
70
83
93
81
83
80
87
91
79
70
87
94
89
80
100
89
86
101
83
95
70
108
97
100
72
102
86
84
107
70
82
94
87
92
92
74
99
106
72
79
104
78
88
96
102
74
79
96
70
72
106
99
71
74
80
102
101
105
75
82
103
92
103
85
72
84
107
74
96
93
102
74
99
80
100
91
75
103
81
96
74
71
85
97
98
77
88
92
104
99
87
100
94
90
104
73
88
84
91
104
90
74
98
85
72
75
74
102
78
86
90
73
81
106
108
73
86
84
98
85
81
98
98
74
72
94
93
98
89
84
108
108
97
95
108
102
103
104
92
81
97
105
84
76
93
81
72
84
90
73
93
82
104
79
76
76
101
96
109
89
82
76
85
87
70
108
99
104
97
79
79
109
107
86
108
72
77
108
104
88
72
98
74
73
70
90
83
91
86
74
104
101
75
91
87
96
71
83
79
80
100
80
109
81
91
94
93
94
73
106
78
80
103
80
88
76
81
74
82
94
105
74
87
78
84
75
81
96
109
90
106
104
89
98
78
77
91
105
93
77
73
93
95
73
103
107
104
99
98
89
87
85
79
106
106
92
93
106
108
77
73
99
82
87
73
87
106
97
106
70
100
109
93
99
85
85
96
106
82
93
82
101
91
89
105
96
96
80
103
89
104
105
89
84
71
93
98
77
95
86
96
95
91
70
86
109
96
99
90
95
101
90
79
71
93
105
77
85
74
73
88
88
76
84
79
101
98
91
101
101
72
99
85
98
90
105
74
74
80
84
109
88
74
98
107
71
102
77
109
72
87
71
81
78
80
76
89
88
74
72
107
71
83
105
97
80
96
109
98
100
75
71
73
78
80
86
76
93
109
102
104
75
104
83
74
93
102
75
81
92
72
108
75
90
80
86
109
105
102
90
87
73
84
84
102
89
96
108
84
104
91
107
101
84
85
84
100
75
83
73
70
80
92
88
100
104
105
109
95
85
99
73
95
75
105
91
109
89
89
87
73
82
95
84
78
100
77
75
85
81
90
100
96
101
93
75
96
103
91
91
88
92
72
81
100
71
107
93
76
101
108
84
101
97
106
98
82
75
104
78
95
95
81
70
94
99
84
109
94
104
97
82
97
109
76
90
76
96
81
89
76
71
89
85
79
86
92
84
89
105
104
95
96
85
72
102
90
106
72
86
78
99
104
97
104
81
72
93
89
109
107
87
78
85
103
97
95
89
76
74
91
78
98
109
82
82
88
77
83
89
74
71
72
104
91
88
103
80
92
73
105
93
91
104
88
80
79
105
101
97
98
108
88
97
105
97
100
87
73
81
105
90
106
79
84
102
96
80
100
82
87
94
78
73
103
91
108
72
104
100
81
80
96
75
72
91
90
90
86
85
90
109
84
83
71
87
90
71
103
80
81
79
73
85
95
90
79
104
96
76
83
82
99
108
107
70
107
76
104
88
103
89
83
86
109
101
105
78
82
73
89
96
84
78
83
109
84
77
100
96
86
101
95
75
99
70
94
86
73
100
89
100
97
102
94
70
82
103
81
84
100
109
102
72
71
80
85
70
93
93
85
90
93
108
93
80
97
70
87
97
83
91
109
100
107
107
80
100
76
91
71
81
80
91
85
81
73
85
103
104
90
104
108
86
101
79
93
96
86
108
70
97
95
104
94
75
101
103
84
80
76
71
82
78
71
74
79
107
82
85
71
84
75
88
94
108
70
94
86
84
96
103
76
70
78
101
97
94
80
107
72
91
80
109
91
90
95
100
75
84
82
88
80
89
104
75
93
77
96
91
96
82
72
80
89
86
73
88
80
87
74
79
84
76
73
91
82
109
105
103
90
102
81
77
80
88
89
82
73
72
99
93
92
108
103
72
76
99
70
106
107
109
100
107
97
91
96
74
85
96
94
100
100
80
87
94
104
96
71
76
82
78
95
83
106
106
75
108
70
109
87
82
82
88
102
71
95
89
92
73
79
106
100
99
104
74
108
81
95
89
104
91
70
78
84
94
97
106
94
95
86
74
83
106
100
97
89
106
93
109
100
98
86
99
77
99
102
101
96
79
93
75
85
101
96
104
82
94
74
70
87
104
109
100
81
88
73
103
75
85
76
71
106
75
75
108
96
78
103
104
83
79
100
87
79
108
102
108
105
106
93
77
77
78
106
75
83
109
106
106
93
89
107
80
77
109
101
92
77
106
91
92
86
107
73
100
84
101
73
83
82
76
73
88
98
90
94
85
96
89
87
83
96
83
99
79
101
104
85
91
83
88
81
79
95
105
103
90
70
83
96
108
83
98
94
70
77
108
81
92
104
108
71
97
83
102
91
108
90
92
90
74
76
96
90
99
72
75
76
82
91
93
83
71
109
101
109
71
86
92
74
103
107
86
91
108
93
97
84
79
84
104
77
103
103
90
101
80
71
103
96
90
77
90
76
109
105
109
94
84
101
90
82
103
73
78
82
101
80
75
70
89
99
70
101
85
76
109
107
76
78
109
84
109
83
107
73
77
102
90
96
99
74
85
104
74
74
101
77
99
83
101
72
73
79
100
107
97
91
74
100
73
91
103
80
104
77
89
82
71
107
108
76
79
93
102
77
90
102
91
83
86
70
87
83
80
72
99
87
109
100
74
79
95
96
83
99
77
75
89
88
76
90
74
105
109
94
109
104
79
93
88
77
79
105
81
86
76
94
91
88
96
71
91
77
108
76
91
94
91
77
78
90
83
106
93
72
103
109
82
90
104
72
76
75
76
76
98
106
95
97
75
87
82
93
85
101
82
79
77
96
75
83
102
82
92
99
93
97
108
99
85
90
101
93
94
108
88
71
92
70
97
82
93
107
92
100
90
80
96
80
98
98
108
85
99
85
103
100
74
99
100
78
85
105
94
102
72
73
88
82
85
91
81
103
71
109
101
101
96
101
87
73
89
108
86
91
99
77
77
95
92
102
72
95
100
79
108
81
88
105
94
101
78
81
95
82
106
92
70
73
104
109
70
97
100
85
89
101
87
98
93
75
106
75
87
95
88
91
78
80
79
101
105
72
87
103
83
89
86
81
93
102
99
71
93
104
73
77
70
75
94
92
96
80
109
82
81
76
74
102
92
105
76
108
73
99
95
77
85
78
82
100
92
102
70
100
84
103
89
70
108
102
98
73
109
71
94
98
103
72
97
79
87
78
97
87
95
71
96
93
86
72
80
100
90
95
84
92
76
84
100
93
99
92
81
76
76
102
106
108
88
74
87
71
94
93
92
85
74
106
96
108
70
86
78
97
104
75
83
86
84
88
98
101
108
94
77
99
93
78
92
80
108
81
98
86
81
96
102
79
98
94
88
85
75
90
101
76
93
105
109
107
85
91
106
75
86
77
83
86
81
103
75
101
84
71
76
99
104
102
79
77
96
73
96
78
103
83
93
93
97
105
88
74
101
78
70
90
73
79
102
79
71
82
102
75
103
107
82
86
92
87
79
94
75
93
80
71
97
73
94
108
101
83
93
76
94
79
100
80
70
94
101
99
71
109
78
99
101
93
71
80
92
99
78
91
75
104
71
105
106
92
71
103
96
87
99
72
80
88
109
93
108
73
87
93
98
82
91
85
94
93
90
105
97
98
75
75
89
84
78
107
97
108
74
89
98
101
92
79
89
79
73
74
83
80
93
74
71
103
85
88
83
83
82
72
82
92
71
79
100
80
86
87
94
81
93
96
91
109
86
97
83
70
95
79
108
74
80
77
86
102
99
77
75
87
105
86
87
89
98
103
76
92
92
74
81
91
97
92
92
71
106
101
77
92
73
107
78
89
109
92
80
70
79
83
71
97
109
74
72
90
100
106
98
80
75
71
107
106
94
87
100
99
88
83
96
80
77
87
73
108
103
79
92
102
103
99
93
97
94
85
102
93
109
80
108
100
98
107
83
95
75
86
76
97
80
101
75
108
108
106
77
99
76
79
82
96
108
101
88
104
86
103
72
99
108
74
85
80
72
73
73
80
82
76
74
97
98
104
102
71
94
109
91
86
78
84
98
107
94
80
101
76
76
79
94
77
106
96
106
92
94
95
102
87
97
70
80
100
77
87
106
81
99
72
98
101
75
77
77
103
76
100
94
70
71
93
97
89
95
81
101
88
92
85
89
74
97
87
86
88
74
72
94
74
82
106
75
105
76
91
98
108
80
99
74
71
96
82
88
73
91
78
109
100
106
76
98
83
106
85
74
95
97
107
90
82
84
107
76
88
80
77
98
90
96
90
73
109
95
78
75
75
94
78
74
89
72
76
74
88
84
88
70
87
106
81
86
89
82
84
79
91
97
84
92
73
109
84
84
98
100
97
99
89
104
98
77
85
101
100
104
83
86
89
82
90
77
106
99
79
89
93
92
107
93
104
96
106
95
94
98
84
102
89
103
106
88
82
101
81
74
101
108
83
81
88
100
95
97
77
72
85
108
109
106
86
102
72
86
91
70
91
91
85
87
81
103
77
79
109
82
94
88
102
79
95
85
92
70
109
87
90
85
89
82
85
97
70
81
100
95
109
97
73
87
108
109
71
100
100
85
91
109
98
84
96
104
81
106
94
87
70
104
83
75
108
82
77
81
105
73
102
90
89
74
72
103
97
89
107
85
70
82
102
93
87
105
82
71
96
104
77
72
97
89
78
89
79
85
76
90
97
85
75
103
101
95
105
98
108
75
94
82
83
93
107
106
92
78
93
84
100
79
82
88
86
101
99
79
80
99
82
85
84
100
102
95
91
97
76
81
109
90
104
99
91
96
77
101
72
106
89
96
77
94
108
79
85
91
91
70
73
84
96
106
108
79
108
105
81
95
96
107
92
80
80
97
86
89
98
93
85
78
93
74
83
94
108
93
70
106
85
109
88
80
70
87
88
95
104
109
97
99
86
104
97
99
95
99
108
97
98
74
90
90
90
99
95
103
82
91
81
99
90
92
79
86
91
94
96
97
96
100
90
75
101
72
108
84
84
90
102
80
102
92
87
102
79
74
79
89
101
88
94
102
90
76
93
71
96
78
108
80
100
93
83
89
86
92
109
91
72
92
106
70
86
76
100
73
101
95
108
83
70
109
86
83
100
76
74
99
92
80
108
75
93
104
102
91
97
91
108
103
75
83
73
82
81
105
73
93
107
90
102
103
100
105
103
105
89
76
101
74
96
75
96
73
75
94
98
97
93
94
90
82
84
71
76
77
71
84
78
88
74
92
86
75
80
76
74
90
96
101
104
84
91
79
88
99
93
93
103
77
98
107
77
90
92
70
105
79
90
100
99
83
74
84
98
72
89
78
104
100
106
93
74
104
94
76
108
97
108
72
85
109
106
100
87
88
106
82
90
96
95
81
88
94
106
82
84
86
104
88
71
88
87
78
84
80
73
107
85
91
79
76
100
83
82
73
94
92
78
91
85
96
81
91
102
72
82
79
75
77
77
89
81
94
78
88
100
90
107
91
73
72
71
107
84
77
101
72
84
70
90
71
76
87
94
75
107
83
84
74
102
108
79
81
100
93
95
82
83
79
101
84
89
89
100
108
101
92
104
91
79
109
76
80
70
92
70
80
72
101
109
75
95
92
78
72
106
71
83
76
105
79
78
79
78
103
85
79
72
87
78
74
89
91
92
101
106
88
82
98
86
71
96
90
101
70
100
71
74
106
90
70
94
73
87
91
78
80
74
77
107
104
101
91
73
70
99
79
82
99
82
90
91
89
82
80
96
95
94
102
100
87
107
81
83
102
95
80
83
84
77
85
95
109
93
72
87
79
89
109
109
93
77
87
81
99
94
100
103
74
87
75
71
94
87
76
78
71
71
71
99
93
83
87
101
71
80
80
99
94
77
71
83
101
100
105
79
76
74
95
84
86
101
72
101
95
86
79
89
74
103
103
104
73
71
76
99
102
91
100
77
98
95
78
76
85
86
97
84
77
78
104
103
106
72
108
77
73
103
99
98
103
102
96
97
98
94
99
75
82
80
75
109
109
97
96
104
107
76
78
90
79
84
103
94
71
73
72
87
86
82
79
83
96
85
75
70
86
75
100
76
107
103
93
99
109
72
103
87
88
93
104
72
87
97
84
74
93
104
74
84
76
72
83
83
76
75
94
95
93
76
96
85
104
88
82
79
107
95
91
82
84
98
87
94
72
72
96
83
108
100
101
74
100
97
88
105
74
89
76
108
97
97
78
96
90
73
75
105
95
92
83
71
70
99
92
76
97
70
90
89
108
109
94
106
94
92
77
95
91
102
82
93
105
99
78
108
81
101
79
73
105
71
103
95
96
87
70
106
81
70
99
85
84
101
95
76
73
98
98
92
79
99
74
106
84
82
89
73
101
106
70
80
96
73
95
99
72
79
78
104
73
70
81
101
77
74
79
81
79
90
71
104
85
87
75
91
75
85
109
103
102
89
81
84
101
82
100
89
103
98
99
102
89
78
94
107
95
108
94
79
94
77
85
75
95
99
102
72
102
101
93
78
75
73
87
79
105
73
101
91
101
97
93
77
81
71
90
85
74
92
77
104
87
90
99
85
107
79
89
97
77
89
78
70
101
74
80
103
97
95
98
95
82
75
76
91
105
97
75
93
94
81
99
74
106
98
90
102
74
106
94
87
79
106
106
103
108
70
85
86
72
107
92
79
109
81
89
81
80
107
75
81
74
76
80
87
78
101
73
86
108
77
85
88
85
104
72
81
104
99
109
98
93
86
106
98
88
74
91
88
87
78
73
83
72
77
85
109
93
74
88
102
73
87
92
85
88
98
80
100
73
97
80
101
71
71
76
71
73
80
74
78
87
81
70
106
86
75
81
102
109
106
79
92
89
97
93
79
86
88
75
81
103
105
87
70
71
95
82
96
89
96
103
109
77
109
73
78
101
87
100
81
95
92
103
73
91
74
104
76
87
100
104
102
73
83
89
109
101
78
85
108
104
76
89
107
100
73
82
103
100
88
70
102
99
105
95
70
80
99
75
102
77
99
95
93
96
78
78
74
89
107
100
75
101
108
88
82
75
94
98
77
77
71
104
109
81
80
87
105
72
84
88
108
102
72
97
100
84
74
94
85
75
103
88
109
90
71
77
89
73
92
103
80
94
76
97
102
72
82
96
76
91
108
95
78
76
80
101
85
85
104
74
102
82
73
104
98
85
70
103
103
87
74
99
104
96
102
98
81
73
79
105
85
72
84
86
107
101
78
107
86
106
80
81
85
95
82
84
106
103
97
94
78
77
97
86
77
91
109
74
78
93
94
106
78
105
75
79
77
105
88
108
89
85
82
100
90
90
97
84
78
72
103
90
93
107
88
103
95
79
82
73
93
82
96
92
78
92
105
105
83
74
86
79
93
76
101
106
77
83
71
73
108
79
104
92
108
88
72
78
95
100
93
79
78
80
76
77
109
82
96
85
109
79
81
84
90
72
105
83
86
90
99
82
93
94
93
91
91
102
104
99
107
73
85
85
90
73
99
80
75
75
86
73
75
103
105
84
72
105
71
71
86
78
102
87
106
91
94
72
74
83
89
79
76
71
83
98
71
91
76
90
80
103
99
88
77
99
101
94
103
70
79
87
83
105
96
73
73
103
98
98
89
104
99
81
107
94
103
86
102
96
80
101
100
85
80
71
108
99
70
98
87
81
104
82
86
105
96
103
108
98
90
105
81
109
85
73
102
102
95
98
80
78
78
104
103
87
101
96
78
71
107
104
72
80
91
104
104
79
95
97
105
92
93
77
72
81
87
96
87
71
94
101
100
101
103
92
89
75
105
98
92
94
109
105
98
84
103
82
88
82
100
104
98
76
92
87
103
94
106
109
93
88
82
79
89
79
91
71
98
106
93
85
95
105
76
76
101
85
77
79
101
76
72
99
86
84
103
78
79
74
94
80
95
99
76
73
105
106
73
107
82
107
104
82
85
89
87
89
97
91
92
79
73
107
74
106
92
98
93
82
102
94
75
98
103
94
99
106
91
104
90
104
89
88
107
80
96
100
70
89
79
85
93
90
75
73
107
70
102
87
86
84
94
82
95
73
76
90
88
74
94
79
93
85
88
87
93
79
94
74
83
107
77
92
96
73
91
76
83
94
75
74
84
99
77
70
85
80
94
94
90
98
84
72
91
74
93
89
87
80
105
85
107
88
92
81
84
84
88
100
97
82
83
85
92
87
85
105
107
92
77
76
74
88
100
90
75
95
98
86
89
106
95
99
73
70
101
106
73
73
76
91
102
74
102
70
73
81
77
84
97
95
73
106
103
103
94
87
70
109
77
86
98
109
90
86
90
103
103
103
97
106
94
95
89
87
76
71
105
72
77
72
97
96
82
89
82
108
90
109
76
107
88
89
74
74
73
108
73
74
97
82
73
102
95
106
91
88
77
78
108
84
108
106
80
103
96
81
107
97
72
109
76
105
98
70
99
87
92
93
92
96
101
97
76
85
109
90
99
70
90
108
75
109
100
85
96
93
100
106
89
109
89
87
86
87
98
87
74
87
99
91
91
72
74
77
96
104
73
72
82
95
97
96
78
100
76
104
97
97
76
108
93
96
83
107
100
78
90
74
74
87
70
77
87
90
103
78
109
70
83
99
80
109
91
84
100
96
108
82
75
100
73
94
86
83
79
105
83
77
97
103
89
81
93
98
72
71
86
92
76
104
76
77
108
96
97
86
93
90
84
76
85
76
76
98
101
85
93
88
94
93
103
96
87
108
88
83
93
86
102
103
93
84
82
76
102
102
97
103
91
89
109
94
95
107
99
70
73
95
86
73
106
93
84
84
109
96
103
80
87
71
71
94
95
76
102
89
71
97
101
95
75
93
85
104
82
73
80
90
107
71
72
108
90
109
88
98
91
94
75
89
101
106
105
91
99
88
89
108
79
89
75
78
104
86
109
98
94
108
73
72
75
95
85
89
84
85
107
99
72
101
90
109
88
80
109
84
80
86
98
85
77
84
93
83
88
109
86
83
74
94
72
87
96
78
108
88
97
70
109
71
76
94
109
77
96
80
97
74
79
104
88
75
82
100
74
79
83
105
86
109
79
79
84
86
74
109
92
88
96
71
87
86
81
87
77
106
108
99
102
108
71
70
85
80
86
72
81
99
98
82
78
94
76
93
93
86
74
107
95
82
89
105
95
103
109
82
72
74
92
103
108
100
105
94
104
74
96
81
92
109
101
105
95
70
82
98
90
103
80
80
92
79
70
82
70
92
104
71
96
101
106
86
92
88
85
106
104
82
96
86
90
85
75
77
88
87
96
109
77
89
84
77
83
84
84
84
109
99
107
76
107
77
107
104
76
105
106
73
87
88
103
103
75
93
85
102
104
96
71
71
85
99
76
73
108
100
86
103
98
85
93
91
91
96
106
83
102
71
80
108
100
75
77
101
95
75
74
109
89
88
103
94
98
102
91
108
79
86
98
81
71
98
80
83
103
88
100
105
96
98
105
82
103
101
73
86
102
97
75
73
90
96
71
101
101
91
95
86
76
73
72
84
107
105
97
109
95
91
100
98
92
98
106
83
96
100
100
108
88
77
79
82
75
88
96
97
100
72
80
104
99
70
97
96
101
100
74
80
99
81
80
100
89
102
78
71
96
97
93
79
70
87
87
88
100
88
89
100
96
85
80
89
100
109
77
75
79
89
91
100
91
100
88
89
86
103
91
79
93
100
85
78
78
73
99
84
101
79
99
101
73
92
76
74
79
70
107
79
96
105
100
90
95
107
77
80
85
85
73
82
88
92
92
97
105
74
106
85
86
103
109
92
72
83
71
89
77
96
108
75
80
76
107
96
71
109
95
106
85
80
81
88
73
75
73
72
80
105
101
100
71
102
104
74
75
100
102
88
92
77
95
104
71
106
91
104
75
107
101
86
102
72
107
82
105
79
92
108
89
79
75
79
72
101
108
70
107
101
92
87
77
107
77
109
101
74
74
106
91
93
80
108
72
84
70
71
86
97
71
76
86
92
101
81
97
92
88
96
105
87
87
108
81
99
86
98
82
101
96
85
87
75
71
92
91
101
91
95
106
73
87
80
77
96
98
71
90
98
100
97
76
105
103
89
102
93
89
79
70
91
95
89
80
92
75
95
87
107
81
75
75
87
71
105
104
106
75
99
108
97
81
72
91
101
109
78
94
73
78
77
97
84
108
102
92
81
84
84
93
78
105
82
99
75
101
70
86
75
80
108
109
71
71
85
96
81
81
73
72
102
86
83
75
104
106
93
92
99
105
108
107
86
74
100
97
108
73
95
79
84
80
82
95
85
77
97
82
86
98
92
107
93
105
89
93
95
78
109
89
96
74
101
82
98
93
90
77
83
84
76
74
90
83
94
72
75
108
99
73
92
81
70
81
94
86
72
77
104
83
94
81
88
89
81
107
92
90
107
78
80
77
78
73
104
82
71
82
105
108
75
93
99
77
88
81
105
86
87
84
92
79
105
102
85
107
72
84
90
104
71
94
99
70
84
99
101
93
101
91
70
84
81
94
82
71
105
107
102
97
79
75
107
90
109
103
109
99
80
95
109
104
94
84
107
92
103
96
88
99
89
93
107
100
86
76
83
102
81
71
100
86
78
96
77
93
106
108
98
102
107
106
77
81
89
80
98
89
94
72
90
93
105
71
97
109
73
79
108
91
80
85
85
77
78
85
74
96
88
84
98
79
89
79
81
76
103
82
70
101
73
92
107
107
72
97
70
103
99
87
102
86
87
85
71
71
70
89
73
74
96
89
85
92
80
76
99
80
105
83
104
88
80
74
91
100
75
107
74
105
90
100
81
94
101
87
75
108
95
100
107
100
97
82
77
109
90
83
105
86
70
89
80
89
92
83
106
72
84
101
79
92
88
87
84
84
91
100
81
75
80
85
96
77
84
95
73
83
102
75
108
77
70
93
102
104
84
79
95
72
98
87
83
80
85
70
105
71
88
82
88
85
89
94
72
102
72
88
88
102
101
108
100
78
97
87
97
102
104
87
100
100
102
105
71
100
80
90
102
80
100
82
82
89
91
86
83
71
77
77
91
93
86
94
104
81
80
88
82
75
97
89
95
99
102
107
83
96
89
76
108
86
95
109
101
80
108
109
72
95
91
79
90
97
73
89
74
85
74
86
98
94
78
87
81
70
109
77
87
101
88
90
83
82
90
81
90
97
79
83
89
102
99
76
85
97
102
109
72
75
103
75
95
80
103
87
97
92
104
104
83
83
77
102
90
100
76
88
97
109
105
104
108
77
84
101
75
70
94
74
75
74
80
101
97
80
85
91
97
86
81
90
78
105
89
71
91
91
77
104
73
76
92
77
98
108
70
91
77
72
72
72
99
75
84
86
90
95
87
98
103
108
103
76
74
72
92
76
76
95
85
91
84
93
103
80
106
82
82
92
76
102
85
88
104
93
83
109
72
76
93
92
100
77
74
71
109
87
108
71
70
74
85
88
88
89
98
98
70
88
71
74
86
104
99
72
81
97
94
105
92
96
96
80
96
98
83
97
103
103
107
71
105
73
85
95
86
79
94
99
76
94
101
83
99
103
92
81
71
79
107
92
102
107
94
96
75
106
105
108
98
71
104
92
77
103
91
88
86
96
90
100
86
91
85
105
77
75
104
100
83
78
85
85
86
84
106
99
93
77
108
79
85
80
92
78
105
90
89
82
88
107
94
107
74
79
94
98
90
75
77
87
90
95
105
92
100
75
105
89
77
93
85
73
103
90
78
109
87
106
102
103
91
81
75
74
104
91
104
72
92
96
109
92
103
73
97
105
87
74
77
106
84
80
90
92
73
108
86
105
93
80
91
70
97
74
96
80
82
95
84
90
89
82
88
106
105
85
84
92
104
70
101
95
90
94
102
71
91
95
108
90
84
76
102
104
104
93
109
100
78
90
97
80
97
96
84
80
87
90
107
77
87
82
105
86
103
80
102
106
85
74
97
97
108
85
106
83
105
90
75
88
94
93
95
82
86
74
75
72
82
89
108
109
92
84
106
88
99
94
100
77
78
102
108
108
92
107
100
72
99
107
81
91
88
71
78
88
71
81
76
105
90
81
73
98
103
100
79
109
109
79
87
88
104
82
109
100
94
88
102
95
72
85
103
77
101
81
103
106
83
93
88
107
71
75
90
85
79
91
105
86
87
91
96
75
73
71
85
74
80
106
79
89
70
107
101
78
76
107
97
104
83
93
102
94
81
87
70
71
78
73
102
89
87
76
85
86
82
109
107
108
91
89
87
100
79
107
84
70
71
84
101
106
79
82
86
82
79
92
77
94
82
101
104
104
102
71
104
97
83
99
103
84
79
86
95
98
81
101
83
101
108
92
98
81
103
91
96
87
75
99
87
108
84
88
79
89
75
103
73
93
107
81
82
72
107
104
94
105
76
74
91
83
100
108
104
83
106
73
85
77
107
99
100
95
99
73
105
102
104
90
71
72
84
96
99
90
105
80
84
83
90
98
107
72
71
108
87
89
97
76
108
84
87
77
109
105
97
73
80
102
99
72
90
99
84
72
98
81
79
70
106
94
105
76
99
76
109
75
72
84
109
107
70
108
73
105
90
89
84
95
107
73
101
106
98
79
84
96
88
84
86
97
103
84
75
89
83
96
109
98
90
106
84
94
81
94
96
85
97
70
102
76
99
78
78
88
72
98
108
89
100
77
94
106
83
92
94
88
100
98
105
97
93
109
70
86
95
104
107
76
84
98
77
72
103
87
94
105
75
86
92
83
78
91
103
88
86
94
75
74
85
107
79
95
98
107
85
107
88
108
75
100
74
84
89
74
87
83
109
78
99
82
91
85
86
70
81
108
105
82
73
94
70
108
96
100
79
70
71
100
75
72
104
102
92
92
100
99
107
90
82
94
72
85
90
79
109
94
75
102
83
96
106
77
80
76
108
89
103
109
86
74
79
94
106
105
89
106
108
106
76
76
86
82
107
81
90
90
106
91
86
93
109
72
84
78
82
74
90
78
87
104
104
77
95
76
88
70
97
94
75
80
105
98
105
97
92
101
73
78
102
78
74
97
94
82
88
107
92
104
100
106
73
95
85
92
96
92
108
108
108
72
71
108
91
106
99
108
105
105
79
106
88
93
87
107
102
94
70
105
79
77
96
102
76
90
95
71
84
77
84
92
83
73
105
71
73
77
100
75
92
109
102
103
80
73
108
75
101
76
86
98
82
72
71
89
73
73
93
95
82
103
73
86
101
95
80
88
83
107
83
77
108
81
84
101
94
82
75
80
76
77
96
78
93
83
73
108
95
92
94
100
83
98
83
73
75
91
70
97
73
109
81
91
74
93
98
106
99
105
98
75
74
87
83
76
80
85
94
70
94
107
107
77
78
93
73
85
91
78
81
71
84
89
87
84
108
97
96
89
102
84
90
108
95
100
96
77
92
102
77
80
94
94
92
83
83
99
93
83
79
78
90
92
83
73
82
105
108
86
86
104
103
85
83
105
92
90
71
81
80
86
71
82
96
101
105
93
75
105
109
99
71
93
89
80
86
91
85
73
90
106
76
88
71
107
77
77
72
83
88
103
77
85
109
75
91
89
97
92
100
88
82
108
97
89
70
82
86
81
79
77
93
102
105
104
93
109
87
78
91
85
83
95
89
108
101
76
71
104
77
88
96
88
92
95
79
108
96
107
73
98
87
109
93
99
95
89
105
101
90
85
102
98
95
83
103
89
103
100
77
99
86
80
95
97
91
92
96
109
81
83
98
102
94
72
82
87
92
74
75
106
94
81
88
89
94
104
92
101
85
108
84
99
82
84
104
100
94
98
101
91
79
105
86
108
108
94
101
108
96
84
100
100
107
91
105
81
86
105
90
73
93
107
108
78
105
109
107
79
79
97
109
104
83
85
71
86
73
80
93
96
101
86
75
75
89
106
106
108
103
99
80
107
96
98
70
70
77
107
96
83
108
106
80
91
109
104
100
91
76
86
98
93
98
81
105
71
88
87
89
105
83
81
86
76
70
73
105
98
108
109
96
105
70
77
103
84
100
90
86
91
71
71
76
90
94
93
93
104
79
89
81
80
97
73
101
109
71
71
77
98
80
92
90
71
92
73
104
107
82
90
84
102
88
84
76
78
74
105
95
78
87
97
103
89
72
75
92
77
91
85
75
93
95
104
78
79
80
95
70
80
101
89
94
93
72
101
82
107
86
86
103
81
96
95
101
92
73
80
99
83
73
98
82
93
81
72
92
72
80
86
78
107
102
94
92
70
71
97
76
96
106
83
102
89
82
74
82
74
100
80
74
105
106
103
90
105
96
84
77
82
102
95
74
100
109
98
79
98
101
96
92
77
85
81
75
94
101
107
70
73
81
90
82
78
102
83
99
73
99
101
81
108
72
82
105
92
81
77
86
73
81
83
105
106
105
95
71
97
104
97
90
106
71
103
83
98
109
79
86
77
73
83
70
104
86
102
83
81
76
102
97
76
108
74
83
87
108
78
72
72
100
101
77
70
80
70
107
109
79
98
106
93
91
77
102
85
90
83
105
84
76
85
81
97
94
84
83
100
79
85
72
93
105
102
79
91
90
72
76
87
84
101
104
74
97
100
88
83
75
74
90
70
74
108
85
98
95
90
72
82
90
86
71
94
87
93
105
106
94
93
109
80
75
88
70
90
75
71
109
106
72
99
78
101
102
96
93
93
71
108
83
103
76
70
83
85
70
106
74
92
84
108
103
80
93
82
102
86
88
71
107
75
82
101
78
99
72
76
74
76
70
88
82
84
103
71
86
96
93
76
98
96
84
77
72
103
82
84
88
87
81
108
84
76
105
105
73
95
80
77
83
94
75
81
96
82
73
105
71
97
109
107
98
93
77
97
90
85
90
93
91
99
71
93
80
94
100
103
95
88
85
94
104
107
103
101
98
87
91
91
71
71
103
104
97
101
96
88
77
99
76
78
103
100
88
82
102
89
77
86
105
96
96
109
98
83
106
77
90
101
101
78
85
98
97
83
103
103
85
89
71
71
98
70
76
72
100
92
102
102
106
94
102
102
73
106
103
93
92
72
86
98
71
98
97
90
91
84
85
91
100
93
106
99
74
94
106
105
93
99
88
91
100
80
102
82
104
94
82
91
76
71
81
72
96
70
84
79
95
89
74
105
93
75
70
109
101
78
90
101
73
78
77
82
99
108
97
108
108
81
104
92
108
97
72
70
81
106
84
97
107
109
78
73
71
76
89
95
91
85
100
78
106
102
100
97
95
89
80
76
87
82
75
73
90
103
85
108
75
79
83
72
104
86
73
91
108
80
77
95
91
83
78
99
78
83
101
74
80
88
82
98
71
90
106
80
71
72
71
97
92
85
73
108
70
84
92
95
82
86
98
95
71
82
74
92
85
76
97
100
85
72
88
70
109
81
85
82
107
93
87
95
108
91
93
85
101
105
94
109
74
87
70
102
93
79
95
89
105
89
94
102
103
106
72
104
105
77
77
79
77
78
108
101
93
90
103
84
109
74
104
101
84
106
83
107
94
93
94
98
97
83
71
74
78
86
93
97
107
89
97
88
79
82
86
83
85
74
79
103
93
90
72
104
87
80
80
104
98
74
94
103
108
90
97
87
82
99
84
79
90
91
90
107
71
105
77
81
109
105
86
87
86
102
96
84
101
96
78
108
72
94
87
96
83
93
102
85
91
73
79
83
104
92
102
105
70
85
106
88
77
106
83
93
88
73
88
98
100
91
84
103
90
90
97
93
94
93
109
92
72
98
101
78
99
75
71
99
108
76
84
86
93
83
102
103
91
89
78
99
85
80
90
81
102
102
85
95
101
105
87
108
98
83
86
70
92
88
85
96
81
94
84
84
101
101
80
79
95
94
76
101
104
96
80
106
101
97
82
84
87
74
106
77
105
87
75
109
82
93
94
87
100
84
96
75
76
87
72
76
83
81
106
82
100
107
103
75
79
108
72
85
77
88
105
96
85
99
99
106
87
104
92
74
103
85
74
81
100
90
78
78
89
90
70
81
107
88
78
106
100
94
80
91
80
74
81
99
78
98
86
108
105
73
94
80
104
106
106
79
91
109
75
84
103
88
74
89
91
88
78
104
92
88
97
100
102
80
76
95
84
90
108
85
73
81
93
89
88
83
86
102
81
81
77
104
70
108
93
108
101
82
77
78
102
73
107
90
87
75
73
93
102
107
94
100
103
96
88
108
71
87
80
85
88
101
103
97
93
93
96
73
97
95
85
90
91
90
103
107
85
91
72
107
93
78
99
81
83
101
95
107
100
71
80
99
87
98
86
95
94
92
90
96
87
78
94
102
107
83
84
81
86
87
90
106
81
75
76
84
85
80
90
93
81
98
92
82
93
80
108
74
87
80
83
105
102
88
86
72
78
91
82
99
84
72
70
99
106
73
80
101
84
75
106
99
100
89
78
105
83
78
88
106
89
75
99
100
104
85
79
74
92
74
90
73
85
86
100
109
79
89
95
92
105
99
102
107
102
91
101
72
105
77
106
71
92
106
107
97
91
100
73
82
92
82
83
75
105
72
85
95
82
98
105
81
76
99
71
70
79
89
74
87
95
84
107
74
72
71
90
72
104
93
90
98
87
80
93
72
106
78
95
75
81
77
79
92
101
89
76
84
94
107
100
101
100
76
74
97
85
106
105
74
94
74
84
73
85
95
80
75
71
81
93
80
85
90
104
94
108
93
101
70
109
80
83
101
106
76
88
101
82
98
102
101
103
88
86
71
78
77
101
97
79
81
84
102
70
80
109
101
80
72
98
90
98
89
103
100
95
77
107
71
104
72
84
74
105
106
105
84
90
74
83
83
107
85
102
77
75
95
92
74
99
82
108
81
94
77
73
107
92
94
109
77
95
91
72
98
70
102
76
72
96
87
107
105
75
102
106
77
70
73
79
94
99
98
90
92
81
85
104
90
97
88
70
81
103
100
108
75
108
92
103
99
82
84
83
83
71
107
81
102
93
99
70
95
89
105
76
98
83
72
101
89
77
99
108
105
72
91
71
71
75
109
98
109
78
88
85
105
86
77
98
88
73
96
87
87
85
78
83
82
75
71
94
105
106
78
97
95
81
95
81
92
85
81
102
86
77
91
105
84
105
84
85
107
82
109
100
101
86
106
77
94
91
106
85
96
86
74
85
74
76
81
90
100
97
95
82
70
70
87
77
74
73
95
74
72
88
109
108
88
101
108
93
109
89
96
74
72
74
94
86
82
87
80
75
86
78
103
102
102
83
98
107
77
76
86
98
93
82
78
72
82
99
109
72
79
78
73
83
71
86
75
86
86
99
100
108
98
93
91
75
108
74
76
83
83
106
98
108
75
74
96
103
90
78
93
104
83
90
70
90
71
106
105
84
88
72
103
91
72
102
73
104
82
100
78
91
70
101
83
80
107
94
85
73
96
78
75
108
107
76
87
95
94
77
87
89
79
93
87
74
104
72
81
85
78
105
71
109
77
107
88
103
83
95
90
79
92
109
80
85
95
70
108
96
78
80
77
91
75
83
76
96
97
109
100
99
82
81
89
81
72
102
106
88
77
100
73
71
94
81
107
82
101
78
75
103
70
100
108
93
109
91
79
94
94
75
89
105
100
84
89
85
94
108
81
107
87
87
98
100
78
76
109
75
94
77
71
91
70
71
92
100
107
107
104
106
92
99
105
79
102
97
73
75
81
93
92
89
107
102
93
91
92
92
77
88
74
107
94
101
78
73
100
98
70
107
70
79
100
77
92
70
95
98
105
82
72
107
91
81
80
75
88
70
104
90
92
74
81
79
88
108
78
92
93
78
78
77
74
98
78
81
81
85
103
77
72
107
107
77
71
107
94
100
94
92
90
101
97
80
108
91
86
72
102
86
102
96
100
71
91
93
74
71
89
100
77
75
103
76
90
98
88
71
93
97
109
85
99
71
77
74
89
101
104
81
78
104
104
89
70
107
106
87
97
94
107
100
75
83
102
96
85
99
101
102
77
76
78
98
97
86
104
81
97
86
101
88
70
82
107
104
94
71
94
72
105
103
96
91
72
71
108
100
77
80
79
79
78
83
80
90
78
83
105
92
101
86
86
84
102
100
70
101
106
75
80
89
76
90
88
100
84
85
81
106
80
89
85
107
96
80
107
101
80
102
105
99
92
101
75
94
78
86
74
81
76
81
103
105
80
71
98
76
72
78
79
89
79
93
96
73
107
105
97
76
73
95
95
71
85
90
83
108
87
79
78
107
82
104
76
88
71
94
78
101
98
82
75
97
99
85
88
105
103
87
72
94
79
77
84
71
106
71
78
88
95
81
75
91
86
71
71
79
72
86
85
102
91
73
96
83
74
74
84
83
92
97
72
83
76
74
80
107
106
106
77
74
104
90
88
106
79
71
103
93
90
89
87
71
107
98
75
102
86
98
84
96
75
73
82
76
103
84
73
108
101
84
72
88
104
107
78
79
85
80
85
106
79
109
107
97
75
95
79
90
101
77
81
79
106
101
70
80
80
84
106
72
107
108
70
108
81
99
108
98
80
98
72
86
102
107
90
75
97
102
106
72
105
93
107
72
91
86
107
95
87
90
89
82
92
76
80
94
98
100
107
75
72
84
73
90
103
90
92
109
103
88
100
95
96
96
81
100
92
92
73
97
92
93
87
87
96
82
93
76
98
92
75
107
109
104
72
77
90
100
72
80
75
85
70
87
84
80
92
106
71
71
82
95
95
103
107
105
79
88
86
80
75
84
91
97
71
100
76
72
71
87
94
99
95
76
88
89
92
83
108
82
98
95
75
104
96
70
70
103
73
92
106
81
84
108
100
78
70
81
93
82
86
92
71
102
106
87
89
99
88
89
104
109
87
83
95
85
71
83
87
89
86
78
98
96
109
108
109
72
98
86
92
99
87
75
91
82
91
84
74
96
80
108
88
90
101
92
100
101
92
78
95
96
70
104
78
92
70
83
87
105
84
85
73
83
75
108
81
86
108
100
106
93
92
75
85
73
76
82
98
104
87
70
86
99
106
105
85
77
103
99
105
89
90
100
99
83
96
71
74
82
76
71
106
100
84
93
79
98
107
77
90
86
73
77
75
99
88
88
88
91
72
106
108
79
77
101
75
98
95
75
93
78
75
85
74
84
72
91
93
78
108
101
92
96
80
73
70
78
82
86
86
95
105
89
87
75
94
70
97
96
81
97
75
83
73
85
89
77
88
77
80
108
94
97
79
109
78
99
104
78
86
83
80
104
82
72
107
101
91
96
76
94
92
73
107
88
78
88
87
80
85
83
79
109
74
98
100
101
89
91
89
83
94
103
109
95
92
78
96
77
102
74
84
91
90
91
102
86
90
94
77
92
93
100
83
80
102
80
82
81
99
97
80
99
72
81
86
98
77
101
85
108
70
102
106
103
105
71
84
108
85
87
75
98
81
89
92
77
91
107
106
72
90
85
78
72
78
90
74
107
70
75
75
98
82
106
70
75
75
76
84
98
96
107
96
104
74
99
81
84
73
107
91
98
104
102
107
97
79
107
106
106
88
97
81
93
76
87
95
86
71
83
87
96
105
98
85
72
102
88
98
102
80
79
70
79
108
109
86
95
75
98
102
85
105
71
72
79
91
109
70
88
85
92
100
71
105
83
74
74
103
88
104
74
97
105
91
96
70
74
79
105
98
95
93
94
83
101
72
87
95
84
74
106
108
79
76
78
81
95
86
92
107
109
91
96
90
87
105
101
86
77
79
95
100
108
80
101
77
74
88
94
72
75
92
106
78
100
70
101
95
86
81
88
92
93
74
97
109
82
72
108
84
78
102
89
105
103
86
96
102
88
104
91
86
108
91
99
82
107
83
109
101
104
84
101
89
90
78
84
72
98
98
71
104
84
107
72
81
74
96
97
80
85
105
70
81
77
104
98
96
107
99
77
97
101
79
76
106
74
87
105
109
70
100
109
90
80
79
75
84
91
102
71
74
106
99
103
97
95
107
81
73
85
77
77
93
100
97
100
79
101
100
105
75
96
97
78
90
74
97
75
74
98
71
99
100
94
93
103
79
90
91
103
99
89
82
78
96
78
107
109
87
101
109
83
82
86
79
75
104
98
98
86
91
105
75
92
78
99
72
77
97
101
89
108
103
71
73
86
98
91
84
80
93
89
75
71
97
73
94
91
84
104
106
79
80
78
83
106
96
79
91
89
104
90
92
81
85
70
99
72
75
83
93
83
78
104
86
85
106
89
71
79
103
91
104
99
103
99
95
93
74
91
95
108
93
79
101
85
86
72
71
105
98
70
94
80
75
83
101
102
100
109
98
93
95
93
108
100
106
102
102
94
84
103
92
93
86
77
83
96
96
75
78
107
97
99
94
71
92
106
97
105
87
87
70
95
94
92
80
89
103
80
105
92
71
83
81
84
85
76
79
91
93
96
71
109
88
76
101
79
73
101
81
87
91
85
92
77
90
89
97
90
88
88
87
103
89
71
87
98
72
107
105
109
91
103
99
96
101
87
92
88
90
107
78
71
104
80
91
109
101
107
90
95
107
88
73
72
75
106
93
70
89
76
96
78
76
103
74
74
105
101
75
90
80
93
72
89
71
96
76
73
77
92
97
81
74
78
87
86
102
70
83
72
95
109
108
79
70
106
99
93
84
94
105
94
89
100
86
101
70
77
94
97
92
106
102
72
100
83
88
98
72
97
83
89
105
95
87
95
91
78
103
97
70
105
95
99
87
86
104
84
70
78
82
83
89
102
106
106
73
95
100
90
75
92
75
96
73
82
86
94
82
100
101
109
104
79
109
89
88
83
87
85
88
84
96
89
92
104
108
97
97
74
93
96
85
102
107
101
102
86
108
85
75
92
78
81
88
89
97
97
102
101
75
104
106
96
71
82
109
88
70
108
92
84
104
91
96
81
100
96
80
98
102
83
78
102
97
101
104
109
94
82
96
98
99
94
70
96
87
95
107
78
77
100
74
100
88
92
99
107
86
106
87
88
103
88
75
89
71
106
70
91
98
84
85
92
88
102
90
100
82
71
81
89
108
80
107
99
74
98
93
85
72
90
91
102
85
92
106
95
104
71
108
93
102
71
87
89
98
104
104
86
94
106
76
74
80
72
95
81
105
93
96
103
82
105
109
101
104
104
99
70
75
76
73
97
81
84
101
81
88
85
71
92
107
80
77
73
108
92
78
70
83
70
83
105
70
86
107
85
82
99
78
95
72
73
100
89
84
106
71
102
74
108
78
103
98
98
100
70
86
109
96
106
104
100
102
74
74
89
94
93
80
94
75
81
96
79
103
83
86
98
85
95
89
101
87
71
98
103
73
81
86
106
94
76
82
71
81
100
102
82
78
79
101
87
83
70
107
109
105
88
88
75
79
83
77
73
81
100
84
95
109
81
85
107
70
86
70
79
92
109
107
98
84
89
102
80
100
92
81
108
90
103
89
85
101
75
85
86
92
94
104
83
70
72
91
89
98
78
70
101
95
102
104
80
102
100
78
81
71
93
72
107
74
82
106
88
96
79
82
79
96
84
93
82
77
76
87
91
96
109
82
88
107
95
70
84
86
96
91
72
109
71
99
74
97
87
91
109
78
87
99
97
109
96
108
100
75
102
82
97
82
98
98
88
102
79
101
71
75
85
101
79
93
98
72
105
103
95
107
83
88
82
89
94
83
104
92
74
103
70
83
84
86
95
85
70
105
80
84
104
76
74
93
94
102
72
80
97
100
74
75
99
79
81
91
101
74
101
70
99
88
75
91
99
70
90
91
81
77
80
100
79
83
72
75
91
106
104
90
73
97
72
74
91
97
77
91
78
107
86
81
95
80
86
81
94
89
100
85
82
88
88
84
92
87
95
70
80
88
97
86
90
108
104
73
101
79
84
78
74
92
101
70
87
86
96
102
94
103
93
83
95
108
96
85
88
72
79
71
84
71
76
70
90
86
84
103
88
90
78
70
72
86
72
77
90
74
79
106
73
96
101
108
98
71
80
71
98
102
96
101
88
89
73
79
75
96
74
109
101
105
85
91
96
106
96
101
72
99
107
108
74
76
92
97
98
83
87
73
99
97
74
73
99
101
96
84
101
88
75
99
75
83
71
76
75
78
109
71
105
75
78
100
78
83
81
105
72
79
103
99
82
73
100
75
93
107
96
91
70
80
87
88
74
82
94
98
88
84
87
74
102
73
94
108
71
101
85
109
91
75
102
70
79
102
103
90
70
91
82
108
80
86
77
109
91
85
88
93
103
91
109
87
102
94
85
82
92
106
104
76
83
94
101
90
74
104
75
94
71
77
86
80
99
108
79
97
93
76
77
99
73
74
89
77
82
104
81
70
101
90
90
103
89
106
91
78
76
87
96
88
79
106
108
95
101
73
107
77
96
95
95
71
109
107
97
77
97
72
83
73
83
101
75
102
91
102
74
99
76
99
93
96
71
88
100
72
80
85
106
104
84
102
77
95
83
77
78
102
91
70
82
90
93
84
74
80
108
106
72
88
107
85
108
85
93
80
102
108
75
104
84
107
74
81
78
84
100
80
96
97
104
90
72
90
92
101
97
78
97
78
70
86
87
83
83
72
83
106
97
74
87
98
73
109
73
104
107
93
78
84
71
102
105
109
91
97
102
90
102
79
100
99
108
101
82
103
107
88
81
87
86
91
91
91
104
95
90
99
84
83
108
89
98
108
109
109
84
78
77
105
98
92
84
103
74
108
108
95
84
78
78
109
93
71
79
83
99
89
92
90
89
85
83
71
74
108
92
92
83
90
96
76
92
100
89
107
88
75
107
93
94
106
82
94
78
101
107
90
80
90
71
70
97
100
109
78
79
77
95
72
80
92
80
73
86
88
76
96
77
76
89
104
80
99
77
97
89
109
72
96
96
91
99
93
109
87
105
70
73
96
77
83
90
101
84
98
70
79
108
108
91
84
93
87
91
82
79
85
93
96
101
93
82
91
105
89
78
104
95
72
96
92
78
76
75
108
100
94
93
106
97
96
72
86
104
108
96
70
81
100
100
86
91
73
72
83
88
72
90
92
72
90
75
74
91
107
89
74
73
77
75
89
108
109
77
88
97
78
92
87
99
77
76
94
104
77
96
98
80
76
105
93
83
77
76
74
90
87
85
79
90
71
88
91
76
82
97
106
80
93
106
95
83
104
94
97
70
95
99
73
98
99
77
107
80
82
105
99
78
98
71
74
79
76
92
97
81
86
86
77
86
81
89
76
75
109
81
79
101
81
97
96
108
95
92
93
96
79
107
70
100
83
78
84
104
92
70
98
76
83
90
73
89
90
96
70
98
100
79
79
91
73
98
78
73
103
88
92
106
94
82
82
86
106
92
76
70
79
71
71
84
88
86
101
75
72
72
78
97
93
86
81
74
73
94
99
86
91
71
79
78
109
93
96
99
87
71
91
88
109
79
96
73
109
90
97
100
75
73
108
94
88
95
78
73
96
92
97
93
75
73
95
77
94
109
103
92
99
96
72
103
86
94
92
76
98
70
71
91
107
99
87
92
109
74
78
81
85
93
101
85
86
88
92
94
80
107
104
103
108
87
92
97
98
92
99
91
78
73
76
96
81
70
96
88
84
87
80
81
90
98
98
103
102
91
109
97
75
85
106
102
107
108
87
88
82
104
70
81
76
85
99
83
91
97
86
100
93
94
101
81
94
96
102
82
83
89
75
79
103
92
70
97
88
78
88
84
76
83
77
99
81
96
90
93
90
109
106
103
89
86
100
82
81
98
97
70
91
99
109
79
76
103
92
86
108
70
95
100
90
101
79
91
86
91
73
93
103
82
75
97
70
96
94
98
99
87
92
107
95
73
108
73
90
72
75
95
77
76
85
88
106
86
93
88
107
86
81
99
105
72
74
75
86
108
106
108
84
94
95
98
79
107
87
93
73
85
108
100
101
80
82
88
70
70
86
98
96
80
106
80
95
95
78
84
87
82
73
109
100
88
89
98
91
80
95
76
73
71
94
99
90
82
77
108
84
77
107
74
94
91
75
107
91
70
72
92
75
82
107
103
99
85
107
75
76
82
83
101
98
102
98
70
102
98
87
77
78
90
92
79
75
101
109
100
108
71
88
108
105
91
79
97
74
85
108
86
72
95
76
80
84
106
80
101
104
87
72
75
107
78
104
73
73
87
95
84
89
80
101
99
72
102
102
75
71
71
101
90
105
104
106
86
72
74
102
94
104
90
95
76
83
105
71
81
86
81
90
81
100
90
72
89
82
83
87
102
99
109
85
87
85
84
84
70
76
95
87
107
101
83
92
90
86
75
99
102
92
83
70
86
76
92
80
78
86
82
75
97
95
77
77
86
102
101
83
89
73
73
81
107
81
90
88
92
100
75
81
80
89
84
82
104
73
96
70
91
92
99
81
100
89
72
85
102
75
81
70
77
80
88
85
79
83
95
75
91
101
75
100
104
79
94
78
105
91
108
98
103
100
78
106
80
99
70
100
79
91
82
86
92
80
92
98
102
75
81
76
85
81
105
82
101
109
87
83
72
98
89
99
99
70
90
86
76
100
70
82
90
104
78
98
101
80
85
73
96
73
89
92
109
72
86
83
95
107
72
89
101
102
79
105
102
98
104
76
104
99
90
80
102
73
86
83
105
74
90
81
109
93
79
74
88
90
74
80
71
73
72
87
89
88
86
101
96
88
96
92
93
98
104
102
99
86
73
97
71
85
100
91
86
88
91
71
72
79
109
96
107
71
97
70
107
78
102
71
97
73
82
88
82
80
81
84
81
87
97
75
103
73
99
103
90
96
109
83
84
88
94
109
78
85
105
93
108
81
86
70
74
75
77
85
103
85
109
72
89
92
108
82
106
109
87
84
81
70
92
77
84
83
102
76
93
83
73
77
90
74
79
75
98
103
99
70
84
81
91
101
82
93
91
109
87
107
72
82
100
99
82
77
73
90
101
72
90
97
81
102
71
79
73
70
97
94
106
81
82
92
109
105
101
91
86
101
86
74
93
82
90
93
101
85
90
83
107
78
100
71
105
103
75
82
100
86
88
86
83
78
80
86
81
77
96
84
101
97
87
106
87
92
75
94
94
98
79
104
72
73
75
101
105
104
84
81
80
99
78
81
78
70
71
103
72
88
77
97
103
90
107
92
87
95
72
76
92
87
105
72
84
87
88
84
80
83
76
78
76
86
75
109
90
89
94
103
74
90
84
107
78
95
105
70
98
92
96
105
89
89
87
98
102
88
82
98
80
109
75
72
90
103
72
108
89
78
77
70
79
85
84
80
88
97
74
105
75
91
75
100
107
91
105
96
87
93
81
73
103
73
71
103
104
93
100
101
81
86
84
77
79
79
77
73
78
88
76
77
97
107
98
76
91
83
95
81
71
70
94
71
102
101
82
98
71
89
71
72
75
88
92
90
97
72
87
79
95
107
81
75
83
84
84
107
105
81
82
109
102
90
96
94
76
105
75
83
78
98
97
76
71
109
76
86
86
73
106
97
101
99
89
89
82
71
105
72
93
71
98
108
91
74
95
109
107
78
75
73
103
97
99
107
101
92
100
106
102
73
95
70
78
71
82
73
102
100
82
107
71
74
93
78
104
109
84
91
73
76
72
76
104
77
85
92
100
102
77
76
97
105
94
104
108
72
86
81
87
82
109
84
102
84
77
91
107
100
70
98
87
98
77
77
82
71
77
71
102
98
102
102
87
97
77
102
109
101
93
91
84
90
84
91
83
93
73
107
85
70
85
89
101
104
71
82
85
87
85
101
105
74
79
95
103
88
102
88
74
103
109
70
95
75
95
96
71
109
97
102
78
108
105
96
99
88
104
108
97
100
84
84
94
107
97
71
74
87
96
94
106
86
104
105
70
78
77
92
79
82
78
101
93
94
99
79
80
95
103
99
102
71
106
93
84
87
83
85
72
77
92
96
79
105
101
78
82
107
102
85
94
103
87
102
108
107
98
86
78
72
76
72
83
71
96
96
101
94
93
107
97
107
105
94
103
73
93
92
107
89
90
100
83
98
100
74
89
76
79
109
75
73
96
105
81
101
93
94
95
71
71
96
109
81
103
72
91
85
103
99
104
72
74
82
93
84
102
98
77
96
73
100
96
106
106
96
81
80
73
85
100
99
98
84
99
94
86
86
99
70
75
107
91
73
93
85
101
108
76
76
80
104
72
91
93
108
106
107
96
105
101
103
106
82
93
103
101
106
79
104
79
83
97
100
90
108
99
79
75
91
94
90
98
75
108
99
81
79
81
84
105
88
104
74
97
83
105
97
105
95
97
103
86
101
90
78
86
88
109
70
103
72
101
107
98
82
78
82
94
106
78
105
107
108
98
72
107
94
84
75
72
74
100
105
74
107
93
74
103
70
106
92
72
108
96
70
82
100
109
105
106
70
89
92
85
85
84
71
87
93
97
91
105
70
81
80
97
86
107
94
77
86
82
96
103
78
79
93
80
99
81
73
102
90
107
108
80
93
109
105
100
85
109
74
70
88
79
82
108
70
74
75
71
95
70
73
93
87
107
103
93
92
107
72
98
71
99
105
100
97
77
85
83
105
106
96
93
99
70
97
106
90
108
82
95
97
76
73
80
79
75
92
89
89
106
80
78
100
89
91
81
76
109
75
100
102
95
70
96
109
87
91
77
107
73
89
91
77
79
79
104
101
95
100
91
82
86
88
89
82
77
90
102
83
76
99
103
103
108
98
77
86
89
90
83
72
87
106
108
99
100
91
87
73
95
87
101
94
80
95
85
73
80
86
84
81
106
85
99
98
90
86
92
103
76
77
94
90
72
91
89
82
101
109
75
101
76
85
109
86
79
87
104
96
81
103
84
108
103
89
81
71
104
73
103
96
73
100
84
104
92
86
84
75
73
85
94
94
93
102
108
74
75
95
75
80
97
109
84
100
92
103
98
103
86
74
108
88
87
103
70
107
89
74
99
109
81
99
70
103
99
98
90
105
76
79
109
80
102
80
100
91
72
87
83
74
92
91
109
96
94
109
91
99
89
86
104
73
83
72
76
86
84
106
86
99
99
103
88
97
90
89
78
94
76
97
95
79
83
75
104
103
70
88
93
71
91
92
73
71
89
74
103
83
90
84
82
97
95
79
90
106
85
86
72
88
78
94
77
103
83
90
78
78
88
72
74
80
72
107
86
94
91
74
81
103
93
89
108
75
97
95
101
92
102
72
108
102
72
76
76
97
74
88
94
77
107
75
83
85
87
91
81
86
80
105
104
82
107
106
101
80
104
95
79
87
101
88
104
107
74
109
93
94
90
109
90
91
88
82
96
95
88
84
96
97
88
85
85
75
86
101
93
81
92
72
72
82
82
92
93
93
90
103
72
102
90
89
104
104
93
101
105
85
99
86
93
108
91
96
104
107
70
84
108
77
77
72
82
101
93
78
74
92
90
108
101
80
99
108
89
77
108
100
77
80
97
73
78
106
82
104
105
81
97
86
89
109
84
80
75
98
71
93
105
97
82
98
108
108
91
94
109
106
85
80
102
95
89
109
84
104
99
103
79
102
81
74
94
105
88
89
93
78
96
96
80
108
104
107
92
83
92
103
84
94
102
103
90
75
100
83
78
105
81
91
84
89
102
98
97
88
81
73
94
76
70
73
80
84
94
70
103
101
70
80
85
106
97
91
90
100
80
89
70
99
73
86
102
107
94
77
91
90
80
90
79
82
91
87
81
74
107
90
107
89
71
87
90
78
86
90
101
73
71
80
74
78
109
79
86
84
91
91
76
105
76
106
87
96
78
82
91
93
72
73
97
72
106
93
97
97
91
94
77
75
81
105
99
99
108
102
100
99
100
76
83
106
101
83
72
71
72
106
101
102
84
74
88
81
84
107
75
99
90
86
96
73
84
90
105
106
103
107
71
73
106
104
81
96
108
84
72
95
88
79
89
85
103
77
82
101
70
80
104
93
107
89
72
100
106
77
76
82
85
102
81
77
91
103
71
81
72
84
80
95
94
89
93
97
73
82
101
76
81
91
71
79
92
81
83
91
107
73
84
76
102
71
88
104
98
97
91
77
97
77
96
71
98
88
82
98
83
97
82
101
77
78
98
104
95
101
74
95
77
85
88
103
106
70
77
97
92
102
86
109
87
94
104
97
85
93
80
97
76
99
89
81
80
72
103
89
83
93
76
96
90
83
73
108
106
75
104
81
83
103
87
97
83
103
95
90
102
94
70
94
77
94
82
103
84
80
87
105
81
73
91
109
105
106
71
107
101
71
97
87
102
74
88
96
76
104
103
77
93
100
102
88
108
99
93
96
88
72
90
105
71
81
93
71
91
98
98
91
76
96
87
92
85
88
103
98
99
97
78
96
75
80
78
80
91
91
81
75
85
87
104
89
72
93
83
93
71
83
82
100
85
79
107
104
97
74
93
97
87
74
77
83
79
80
103
101
90
108
103
81
106
85
80
104
105
70
77
88
101
77
70
80
90
101
101
106
81
102
106
90
72
100
100
71
73
86
89
96
72
87
87
73
79
82
99
78
92
106
107
95
77
104
87
108
99
96
77
107
77
70
102
104
94
109
74
100
98
96
75
97
108
93
97
100
92
78
82
100
72
82
108
107
96
84
85
107
70
106
75
106
102
81
88
89
82
78
73
89
105
80
87
95
73
93
77
106
98
74
74
106
101
95
74
83
77
89
80
91
77
98
71
80
107
70
105
93
91
96
87
87
70
109
83
91
92
94
90
90
104
84
102
87
84
71
99
72
109
87
88
108
71
95
72
109
108
79
106
93
73
105
77
101
82
70
80
84
103
90
89
85
95
77
77
84
92
107
88
90
102
95
93
87
77
83
71
96
73
75
97
105
101
83
75
92
100
85
78
90
82
80
98
82
101
94
94
104
77
108
96
96
98
87
70
83
70
77
84
97
99
90
70
96
102
76
97
91
100
105
101
103
107
80
101
90
108
109
90
84
96
89
101
83
81
97
76
98
74
101
71
97
105
76
99
107
84
78
86
99
90
90
92
73
100
74
74
108
92
83
89
104
84
97
77
106
73
83
87
81
98
107
104
88
76
81
70
105
80
104
84
76
87
104
77
80
100
78
81
105
99
105
75
75
105
86
90
102
100
79
79
98
100
71
78
85
83
97
81
91
105
82
73
77
74
83
70
77
92
92
97
89
75
70
80
94
80
103
98
70
90
91
91
77
91
89
98
105
78
76
98
88
87
75
70
103
108
84
72
80
98
84
99
91
84
105
71
72
87
92
86
75
89
73
77
106
108
81
84
83
109
82
105
73
106
109
82
97
84
105
91
88
72
86
79
79
100
100
81
106
97
77
101
85
83
72
99
103
97
103
84
76
81
100
96
102
75
79
87
100
106
75
70
78
70
90
109
79
85
70
78
83
91
74
73
83
79
80
70
71
97
100
74
84
73
72
86
86
81
89
83
79
94
106
99
105
99
105
108
80
94
95
86
108
71
99
88
78
78
105
70
96
84
102
101
82
93
79
82
90
93
107
80
75
89
103
88
74
87
81
70
77
72
71
81
76
100
96
75
85
71
107
106
107
83
86
71
78
102
90
85
105
70
86
92
96
98
96
78
72
82
99
89
100
106
94
79
92
74
89
90
105
98
86
92
87
93
85
102
81
107
79
71
92
100
96
87
109
81
87
93
108
77
88
102
101
100
92
87
100
82
94
85
81
71
82
82
92
74
89
99
91
76
96
80
82
79
98
99
106
87
91
108
109
79
78
77
97
78
105
90
99
75
104
107
102
87
103
77
100
83
84
85
75
98
92
103
84
88
76
94
97
91
75
93
92
96
103
101
80
105
101
88
74
94
85
78
79
105
101
85
109
87
85
94
106
108
98
109
106
78
71
82
71
85
105
86
81
89
74
96
73
92
96
105
80
81
71
92
77
70
92
90
87
94
99
76
104
82
108
99
83
97
97
93
87
109
108
72
83
80
78
76
84
103
83
92
102
70
92
86
80
101
77
107
91
81
96
80
100
109
105
70
103
82
84
96
70
84
92
99
99
80
101
74
91
83
76
75
83
101
70
83
87
70
102
81
73
87
75
74
86
100
97
105
71
96
79
82
79
97
81
87
72
94
86
106
76
71
85
84
96
92
83
101
91
97
72
93
104
88
108
98
71
103
92
107
75
91
89
93
88
109
83
76
75
108
97
84
95
107
108
96
101
85
85
74
91
103
100
101
80
108
107
104
95
102
98
75
82
108
108
79
89
95
74
89
100
105
70
95
109
96
83
103
89
79
83
100
96
95
97
89
83
108
80
107
109
82
107
98
109
82
79
73
100
103
78
103
82
78
85
93
101
85
104
88
101
83
109
105
81
73
102
99
86
71
83
92
106
90
103
104
108
109
106
83
78
93
95
70
85
90
70
76
80
82
85
109
104
96
75
74
87
85
101
89
76
70
100
108
109
79
78
101
78
101
84
85
90
98
77
86
102
101
89
85
78
80
81
108
107
102
76
78
90
92
93
108
99
103
107
96
103
71
81
105
75
83
71
78
101
93
72
78
85
103
103
72
94
86
75
102
85
102
106
79
81
86
109
84
75
109
81
75
80
84
86
75
76
70
107
96
98
87
105
88
105
89
86
76
97
108
109
107
95
70
77
91
109
97
103
73
85
85
76
92
95
78
94
77
73
79
94
73
71
102
102
74
83
98
95
74
70
75
102
74
72
96
83
75
93
71
98
107
73
73
85
74
77
83
74
93
105
85
89
82
84
92
97
109
99
98
99
83
94
81
94
77
89
100
109
87
98
71
78
81
94
104
77
86
89
77
88
108
77
88
92
75
90
105
88
105
88
106
104
77
73
105
109
106
90
105
91
79
75
98
83
77
109
98
74
88
91
76
82
73
84
80
103
107
89
99
77
86
98
81
104
81
78
72
83
82
98
79
77
106
73
70
98
101
77
104
102
96
101
102
79
78
71
78
75
92
72
108
103
107
98
87
97
94
77
80
89
101
82
78
84
82
83
85
105
98
103
73
88
101
77
77
86
81
102
97
70
84
96
99
85
97
72
93
93
102
71
88
93
99
73
95
94
93
82
87
105
91
90
109
95
89
75
81
73
75
96
81
82
100
80
97
97
104
83
82
83
87
100
88
88
84
80
105
77
100
70
107
90
106
79
92
93
98
72
96
87
108
78
71
101
92
81
77
74
96
108
102
107
106
107
81
75
95
102
108
95
102
70
89
109
101
70
103
105
89
76
84
72
92
95
98
73
108
74
79
88
73
74
73
101
79
101
106
84
109
76
81
78
85
91
73
104
109
94
85
99
101
86
100
100
107
107
74
108
91
108
72
83
99
70
76
104
94
90
83
109
78
90
87
89
71
76
84
85
98
79
103
91
104
78
89
75
104
76
88
96
91
103
94
107
77
71
70
70
94
81
101
84
98
87
94
71
70
90
89
82
84
83
100
105
89
86
105
93
108
88
98
84
90
106
91
72
104
70
88
95
96
82
79
99
89
91
70
82
88
76
72
73
75
103
92
109
103
107
71
82
95
95
99
72
89
86
95
90
100
83
105
89
85
70
105
80
90
80
96
81
70
83
89
105
94
94
79
79
99
88
80
82
73
98
96
100
79
98
105
81
105
101
81
109
75
109
84
109
102
91
99
84
103
87
93
97
94
102
86
95
109
91
94
94
82
81
107
80
94
79
73
86
71
109
96
75
82
94
87
105
93
71
72
75
77
103
84
91
99
71
96
109
92
100
104
100
105
107
83
108
108
100
79
103
85
74
87
75
76
106
98
84
79
98
78
94
78
84
76
78
109
82
78
74
82
100
70
101
96
96
97
88
91
82
84
102
100
109
77
102
71
88
93
70
76
92
109
85
75
77
79
82
92
71
102
84
77
99
89
98
109
106
107
76
89
89
95
89
108
101
90
106
84
81
89
87
75
102
101
89
76
99
92
79
79
85
74
85
94
72
72
73
73
102
84
96
102
80
104
106
109
83
87
73
83
76
109
95
70
88
71
104
89
85
100
85
103
109
90
83
93
76
107
108
99
79
97
92
108
79
96
79
103
87
75
89
76
74
90
94
83
105
74
75
105
92
77
100
100
86
108
80
98
70
107
74
77
91
92
81
105
95
78
98
105
72
78
100
103
91
103
92
83
98
79
99
102
103
106
101
86
81
90
74
100
103
95
106
85
82
100
93
87
88
74
74
76
70
73
97
107
86
92
105
85
74
108
70
78
95
96
86
93
77
84
107
85
102
95
86
84
93
97
98
100
82
93
86
81
83
91
87
82
84
89
86
99
98
75
109
106
108
81
80
88
83
96
98
75
92
99
93
74
76
92
94
73
99
93
104
77
76
108
104
74
92
79
89
83
73
100
97
73
93
100
84
97
83
96
95
95
81
108
95
87
102
76
99
101
102
85
79
75
108
85
83
92
103
93
92
86
88
109
81
93
91
105
80
94
92
99
98
89
108
97
92
91
108
73
96
90
89
106
99
74
104
77
96
87
92
107
85
84
71
80
76
76
93
97
102
88
95
74
107
72
102
83
100
101
77
92
108
86
100
86
84
97
83
92
103
109
92
82
78
109
85
76
100
72
108
91
92
95
83
84
90
70
70
97
103
94
90
99
89
106
73
88
74
81
99
106
80
108
95
89
109
89
106
106
104
95
71
79
108
98
89
105
87
97
109
83
93
78
90
81
94
102
77
104
109
90
104
104
107
85
92
80
108
103
87
73
88
82
103
70
76
91
72
89
106
90
74
105
102
101
70
99
75
90
106
79
94
108
84
85
96
88
92
80
106
73
92
89
92
80
108
78
86
104
105
77
107
73
70
84
99
107
94
107
104
109
88
84
75
71
76
81
79
101
94
87
71
77
73
82
76
91
101
74
89
82
75
108
98
94
80
91
90
79
97
72
77
81
79
104
85
82
75
93
105
76
107
88
90
75
76
85
72
73
75
95
77
97
71
94
88
88
97
70
85
98
72
99
98
92
78
105
85
102
70
104
92
92
98
88
93
101
88
97
104
75
77
95
74
92
109
84
75
72
73
70
82
93
98
74
87
103
109
73
105
91
72
99
106
102
92
73
71
74
83
87
108
89
84
89
96
93
76
85
109
86
79
90
75
101
80
87
108
98
85
88
83
81
95
92
89
90
96
90
88
105
102
102
92
75
71
86
87
90
109
97
84
74
84
90
86
109
105
82
106
100
78
84
105
104
91
109
107
96
95
76
89
107
88
70
73
72
79
76
79
84
79
97
74
108
95
71
93
76
86
82
79
95
95
79
85
71
93
70
78
88
81
85
88
72
81
71
81
82
83
78
80
91
91
92
85
84
105
80
79
89
95
95
84
97
89
97
86
96
109
93
92
73
77
71
102
72
75
98
70
79
76
81
75
95
88
82
71
97
97
77
75
77
107
105
74
99
83
96
108
89
90
84
108
108
84
74
91
90
75
102
102
88
106
71
102
103
71
108
95
92
88
87
91
96
90
81
95
109
78
86
71
75
85
98
85
97
93
101
88
80
92
83
91
76
84
79
90
108
80
89
85
93
94
85
78
82
85
102
77
71
89
74
102
77
101
88
73
104
73
80
83
104
92
82
75
77
83
89
72
71
106
81
105
84
98
95
108
107
76
88
91
72
109
93
75
89
83
85
103
73
103
83
78
75
91
82
72
97
102
70
70
109
86
76
83
81
85
85
77
82
94
79
104
106
98
85
85
93
79
73
103
100
72
71
71
81
106
75
81
106
86
93
70
81
99
107
91
75
94
96
89
72
92
100
102
99
103
93
85
106
72
100
81
80
108
75
80
81
73
85
102
94
90
102
95
82
82
85
81
107
102
71
72
93
86
103
100
100
101
90
105
72
70
79
77
86
82
71
80
93
71
81
71
94
75
74
96
87
90
107
93
97
84
83
99
73
99
102
82
84
91
86
98
95
90
81
92
78
74
75
94
99
77
70
107
97
73
80
99
89
108
84
103
77
81
98
96
92
107
75
104
109
74
72
80
79
108
107
108
88
85
80
100
100
98
85
100
97
91
88
87
72
79
104
79
87
85
78
88
93
87
85
70
85
89
88
108
71
83
99
70
75
99
86
105
104
71
101
98
76
82
74
92
76
100
95
78
70
79
79
100
77
87
93
108
86
97
95
108
96
88
107
107
97
100
99
93
103
92
94
107
75
101
79
98
77
91
106
98
108
71
107
74
92
82
89
90
94
74
100
74
82
98
91
73
88
86
81
88
80
80
96
80
94
77
102
97
74
91
104
100
71
78
100
108
90
89
91
88
93
107
87
100
101
106
81
90
97
100
71
98
92
83
84
97
77
105
88
73
109
93
73
109
104
76
106
72
95
75
83
103
77
92
89
76
97
104
95
84
100
92
93
75
107
71
97
102
87
82
100
106
100
104
94
108
78
96
75
88
91
73
88
85
100
94
73
80
109
83
101
73
88
87
76
99
101
105
71
104
94
71
98
92
96
77
78
88
99
83
73
83
93
83
74
100
76
97
71
74
83
76
89
87
87
84
107
83
82
75
103
93
104
97
106
71
96
83
81
75
77
77
83
72
94
72
73
90
83
92
108
81
97
90
93
104
87
99
83
89
98
93
72
103
70
72
109
108
102
75
71
100
77
101
106
73
94
89
70
73
82
96
87
93
96
93
73
99
97
102
106
102
84
103
90
100
79
107
82
73
96
93
89
107
75
83
85
109
85
85
88
79
80
85
88
86
95
95
75
104
85
90
106
75
73
96
94
70
85
83
105
80
95
96
87
95
103
96
92
108
106
109
87
94
103
82
103
100
96
102
93
95
91
74
107
70
81
96
91
92
78
71
75
87
75
85
103
82
97
76
88
102
71
80
91
93
109
87
77
79
73
106
102
96
74
92
107
81
108
80
73
93
100
88
95
104
92
83
107
99
80
78
79
99
98
103
85
75
99
85
97
87
100
108
71
107
108
88
76
98
82
72
73
107
109
101
85
73
73
83
98
107
102
103
83
75
100
97
93
90
105
76
84
84
103
108
78
88
79
103
86
107
106
87
106
93
90
71
86
84
108
84
92
88
73
102
84
103
101
79
81
97
71
107
108
94
74
81
101
71
100
97
95
91
93
94
84
99
74
102
73
104
91
79
98
75
73
84
81
77
85
81
107
80
108
83
99
102
71
76
92
88
83
109
81
106
91
100
87
109
95
97
102
85
71
75
75
108
88
89
106
94
99
78
82
95
98
108
105
74
108
76
106
76
107
76
91
72
76
90
84
83
95
73
93
99
96
89
88
84
93
92
103
99
80
102
71
102
103
85
85
107
83
82
87
105
86
85
78
108
72
80
106
85
75
101
103
81
85
73
79
81
103
93
89
74
92
107
96
85
100
86
95
74
98
101
99
88
90
105
73
104
86
93
82
92
91
86
83
73
96
106
82
100
71
94
95
77
79
82
103
109
89
96
71
93
73
94
103
74
104
80
84
108
104
81
98
78
87
75
82
99
87
109
105
86
101
92
73
90
105
78
92
84
93
75
85
70
82
76
82
101
88
81
71
78
84
109
76
84
94
93
75
109
91
73
74
78
89
82
80
99
81
93
78
83
82
70
98
76
76
73
100
83
105
76
75
71
99
97
80
103
90
107
102
88
84
95
87
107
98
85
75
79
97
95
77
99
94
74
86
78
78
82
94
75
93
106
71
87
93
84
77
109
105
86
91
76
98
95
104
87
82
104
106
77
95
85
73
98
98
102
95
94
97
97
78
101
90
83
108
94
89
71
99
103
100
78
83
90
84
104
83
89
103
81
101
87
100
103
107
98
78
83
71
83
93
94
71
96
73
86
104
93
96
74
82
94
106
90
109
88
100
82
98
89
98
72
77
108
80
100
97
81
90
72
85
93
74
80
102
102
74
76
77
106
75
92
98
105
109
75
97
71
80
102
100
94
99
103
81
92
98
109
94
105
77
86
74
100
103
72
93
78
101
93
99
87
72
101
92
87
107
80
72
88
73
100
106
74
81
75
98
87
84
81
87
105
97
77
109
96
78
86
99
96
105
72
80
90
103
78
88
106
94
90
97
73
70
75
107
76
70
102
71
85
92
89
70
89
108
100
70
97
101
97
97
108
95
101
94
93
74
95
84
89
108
96
84
84
105
92
71
84
80
104
72
78
91
108
74
104
95
76
93
87
85
89
102
90
104
85
92
87
71
87
74
100
86
99
82
88
80
70
86
91
88
73
77
91
105
75
108
104
73
108
107
99
77
95
74
98
90
72
75
95
96
87
89
91
83
83
90
93
77
90
89
71
70
88
95
98
85
94
107
72
92
85
71
99
103
107
109
101
85
93
82
95
75
86
90
102
109
87
108
90
78
80
71
89
81
77
101
100
105
108
103
80
70
78
81
80
105
84
88
97
99
85
105
70
73
85
76
109
90
87
104
81
107
71
104
105
91
97
103
90
99
70
88
96
105
96
74
75
93
91
106
87
98
95
81
100
97
83
87
88
75
77
103
73
78
95
85
96
90
108
86
74
100
83
103
105
83
75
97
98
81
72
91
96
99
76
88
105
101
73
91
103
72
70
88
98
94
73
101
76
103
101
81
102
100
76
75
105
92
102
102
87
94
98
108
82
70
91
81
93
107
79
97
106
81
93
92
84
98
109
96
95
82
85
80
108
107
72
77
89
86
73
106
88
99
105
92
71
107
77
89
80
84
108
96
98
109
72
82
80
75
106
103
87
91
83
84
86
72
96
83
89
87
85
84
71
106
70
99
70
90
82
74
90
96
97
80
77
86
71
74
76
73
97
89
70
89
96
92
75
101
92
71
106
73
90
108
107
81
89
106
94
106
105
91
76
87
93
98
109
82
83
84
81
91
98
86
99
94
107
96
98
88
91
105
106
106
71
83
108
81
105
80
73
85
83
108
100
104
97
109
80
98
84
105
103
99
108
87
94
88
77
81
93
82
93
95
107
91
101
104
97
74
103
93
78
105
79
86
99
109
76
97
104
93
81
72
71
71
87
83
102
104
78
70
75
75
91
107
108
75
92
107
92
108
106
81
101
103
70
88
90
76
79
95
99
77
107
89
79
104
84
90
109
78
77
79
92
74
93
85
84
92
91
108
100
102
83
101
78
102
79
90
71
86
90
94
99
72
73
109
97
102
91
92
98
105
74
84
72
105
91
75
101
100
90
100
97
106
97
104
97
72
99
101
84
107
76
70
71
80
84
107
91
105
83
90
101
99
95
78
87
86
75
87
70
84
106
90
75
78
109
91
86
91
82
96
87
98
102
104
87
91
91
91
87
97
109
75
78
74
105
92
81
82
88
96
95
92
107
79
107
107
95
101
85
80
99
83
98
101
71
75
99
98
71
94
92
85
72
80
94
79
75
95
87
93
104
95
71
108
100
90
95
105
94
78
94
71
78
87
92
74
104
79
90
92
80
91
73
78
101
88
83
90
83
101
71
94
75
83
80
76
102
107
72
79
75
78
105
104
101
83
101
98
96
92
78
75
101
106
96
84
76
83
70
99
105
96
90
95
98
108
97
83
105
90
79
103
109
102
78
83
93
87
77
101
96
75
103
101
78
84
88
79
92
73
103
97
86
72
105
102
77
90
107
98
91
72
90
95
77
101
102
95
105
91
108
99
95
83
107
83
109
103
97
95
109
91
103
77
74
107
74
76
91
102
76
81
87
76
106
88
98
99
79
77
71
80
98
107
70
77
107
85
79
102
107
107
72
88
100
80
84
83
71
73
93
95
101
96
83
78
80
82
109
97
99
77
87
109
95
102
101
87
71
91
87
78
94
108
109
104
88
71
101
80
86
85
91
70
78
79
80
79
91
100
102
102
88
71
106
99
107
93
75
75
103
92
99
81
106
75
91
84
97
101
108
96
89
87
83
73
96
101
77
102
106
72
76
98
104
91
104
81
70
102
97
97
92
106
83
78
96
85
83
107
97
105
90
109
103
97
72
90
97
107
75
83
71
84
103
86
106
80
80
79
80
81
70
87
100
75
80
85
102
93
77
101
71
82
86
70
87
97
72
97
107
105
89
78
73
105
73
97
93
71
99
93
97
96
75
95
89
96
98
103
101
98
96
99
82
81
81
84
83
80
108
92
84
87
88
80
72
79
103
99
99
81
80
92
82
97
87
97
105
73
104
91
85
99
76
107
76
102
91
86
90
77
99
85
86
109
79
104
76
70
84
85
75
91
72
99
105
109
107
83
94
101
91
97
71
89
82
96
100
105
91
108
84
82
86
92
71
98
95
95
109
93
77
101
101
96
74
82
72
84
79
103
87
78
106
90
97
76
90
103
74
98
82
103
97
109
76
79
81
88
104
92
83
78
93
78
97
103
87
90
109
78
98
93
107
98
70
77
93
84
99
74
94
80
87
93
105
80
78
88
99
77
105
79
94
103
82
101
79
95
102
74
90
83
100
99
92
98
70
106
90
104
94
88
104
84
99
80
76
97
75
78
101
82
83
72
102
81
85
84
79
89
81
98
86
74
87
91
89
78
107
74
71
82
74
74
96
70
85
104
91
97
108
98
71
78
109
96
91
76
77
106
105
109
85
83
96
108
104
100
98
109
109
76
78
104
80
102
87
78
70
108
108
71
89
75
105
83
72
94
101
103
74
95
94
83
108
84
90
90
82
87
79
105
99
88
70
99
80
78
91
92
77
100
80
85
81
89
107
87
75
91
109
100
78
84
76
106
86
77
75
73
83
74
96
80
85
103
71
75
73
74
77
79
108
88
104
89
76
84
85
76
103
109
81
81
78
72
92
76
90
78
83
76
83
96
101
83
85
79
81
87
75
88
102
105
96
105
82
108
100
101
79
88
107
102
107
103
101
84
95
71
89
96
90
82
83
94
71
82
88
91
92
81
96
75
100
80
99
78
104
86
71
83
97
99
81
70
89
70
89
78
107
76
107
90
96
90
83
102
100
77
97
96
104
79
93
88
73
109
93
71
104
95
109
79
91
95
102
107
109
94
106
104
98
99
71
109
77
85
98
87
101
75
102
104
101
106
101
72
83
71
109
109
76
102
95
87
102
98
76
103
102
94
81
98
82
99
109
96
97
107
105
105
82
78
103
74
107
98
93
76
76
72
100
103
83
100
84
93
104
94
107
105
91
95
86
82
109
94
103
83
109
100
79
93
76
84
85
86
83
87
72
108
83
86
82
101
92
98
77
81
99
97
74
82
70
81
80
90
90
82
82
102
103
103
101
98
73
102
72
77
83
80
100
70
87
75
102
79
105
86
98
97
77
100
74
105
70
100
104
89
97
104
97
90
88
94
90
88
83
84
95
94
108
103
73
100
82
92
72
94
105
80
82
79
104
102
107
94
99
72
101
88
89
88
81
94
81
103
95
104
89
109
75
97
79
82
88
85
99
76
81
97
100
82
86
75
75
105
92
74
93
85
72
102
100
74
109
74
80
107
100
105
90
99
99
71
98
82
97
98
82
98
97
97
90
82
109
107
93
99
109
75
100
106
89
91
89
109
83
87
87
106
80
91
104
76
80
87
103
70
83
82
103
93
79
85
107
82
88
89
88
77

