ch130
130
1 334.5909245845 161.7809319139
2 397.6446634067 262.8165330708
3 503.8741827107 172.8741151168
4 444.0479403502 384.6491809647
5 311.6137146746 2.0091699828
6 662.8551011379 549.2301263653
7 40.0979030612 187.2375430791
8 526.8941409181 215.7079092185
9 209.1887938487 691.0262291948
10 683.2674131973 414.2096286906
11 280.7494438748 5.9206392047
12 252.7493090080 535.7430385019
13 698.7850451923 348.4413729766
14 678.7574678104 410.7256424438
15 220.0041131179 409.1225812873
16 355.1528556851 76.3912076444
17 296.9724227786 313.1312792361
18 504.5154071733 240.8866564499
19 224.1079496785 358.4872228907
20 470.6801296968 309.6259188406
21 554.2530513223 279.4242466521
22 567.6332684419 352.7162027273
23 599.0532671093 361.0948690386
24 240.5232959211 430.6036007844
25 32.0825972787 345.8551009775
26 91.0538736891 148.7213270256
27 248.2179894723 343.9528017384
28 488.8909044347 3.6122311393
29 206.0467939820 437.7639406167
30 575.8409415632 141.9670960195
31 282.6089948164 329.4183805862
32 27.6581484868 424.7684581747
33 568.5737309870 287.0975660546
34 269.4638933331 295.9464636385
35 417.8004856811 341.2596589955
36 32.1680938737 448.8998721172
37 561.4775136009 357.3543930067
38 342.9482167470 492.3321423839
39 399.6752075383 156.8435035519
40 571.7371050025 375.7575350833
41 370.7559842751 151.9060751898
42 509.7093253204 435.7975189314
43 177.0206999750 295.6044772584
44 526.1674198605 409.4859418161
45 316.5725171854 65.6400108214
46 469.2908100279 281.9891445025
47 572.7630641427 373.3208821255
48 29.5176994283 330.0382309000
49 454.0082936692 537.2178547659
50 416.1546762271 227.6133100741
51 535.2514330806 471.0648643744
52 265.4455533675 684.9987192464
53 478.0542110167 509.6452028741
54 370.4781203413 332.5390063041
55 598.3479202004 446.8693279856
56 201.1521139175 649.0260268945
57 193.6925360026 680.2322840744
58 448.5792598859 532.7934059740
59 603.2853485624 134.4006473609
60 543.0102490781 481.5168231148
61 214.5750793346 43.6460117543
62 426.3501451825 61.7285415996
63 89.0447037063 277.1158385868
64 84.4920100219 31.8474816424
65 220.0468614154 623.0778103080
66 688.4613313444 0.4702312726
67 687.2857531630 373.5346236130
68 75.4934933967 312.9175377486
69 63.4170993511 23.7039309674
70 97.9363495877 211.0910930878
71 399.5255884970 170.8221968365
72 456.3167017346 597.1937161677
73 319.8855102422 626.8396604886
74 295.9250894897 664.6291554845
75 288.4868857235 667.7284070537
76 268.3951858954 52.9010181645
77 140.4709056068 513.5566720960
78 689.8079027159 167.5947003748
79 280.5784506848 458.7533546925
80 453.3884433554 282.9082328989
81 213.5704943432 525.8681817779
82 133.6953004520 677.1757808026
83 521.1658690522 132.8617086506
84 30.2657946347 450.0754502986
85 657.0199585283 39.7772908299
86 6.9252241961 23.8749241575
87 252.4286967767 535.1659364856
88 42.8551682504 63.8232081774
89 145.8999393902 399.5255884970
90 638.4885715591 62.6262558472
91 489.2756391122 665.3131282446
92 361.2231139311 564.2347787901
93 519.9475425732 347.9711417040
94 129.3349741063 435.6692740389
95 259.7172815016 454.6495181318
96 676.3421890013 371.0979706551
97 84.5133841706 183.3260738572
98 77.7164048671 354.3833863300
99 335.9802442534 660.6321896676
100 264.3554717810 377.5743377274
101 51.6826916855 676.0429509187
102 692.1376849300 543.8010925819
103 169.2191356800 547.8194325476
104 194.0131482339 263.4791316822
105 415.1928395332 78.9133571973
106 415.0432204919 479.0801701569
107 169.8389859939 245.6103433244
108 525.0987124228 213.5063718969
109 238.6851191283 33.4932910965
110 116.2112467718 363.5742702940
111 16.9283258126 656.5711014044
112 434.3440768162 92.6996831431
113 40.5253860363 424.6829615797
114 530.4849979086 183.8390534273
115 484.3595848990 49.2460387276
116 263.6501248722 426.5852608187
117 450.2891917862 126.3853415784
118 441.7822805823 299.7724362653
119 24.2169105375 500.3474481664
120 503.7886861157 514.6895019799
121 635.5389390312 200.9811207275
122 614.5922732529 418.8691931188
123 21.7161351334 660.9741760476
124 143.8266469611 92.6996831431
125 637.7191022040 54.2048412384
126 566.5645610042 199.9551615873
127 196.6849168280 221.8209157619
128 384.9270448985 87.4630166986
129 178.1107815614 104.6905805938
130 403.2874386776 205.8971749407
95
88
103
78
91
75
89
98
108
89
107
93
104
78
105
88
100
86
91
87
75
100
94
101
109
97
74
103
83
91
100
95
107
84
95
104
104
109
87
82
83
98
71
86
95
103
107
84
97
83
80
74
87
100
91
73
100
100
87
75
73
75
99
79
85
108
75
88
71
92
93
98
91
105
103
87
76
103
80
97
82
89
100
89
100
109
100
80
71
81
109
99
87
109
103
92
93
73
105
79
74
105
83
74
84
102
109
105
79
70
70
89
77
70
95
99
96
88
89
91
103
72
84
97
95
91
82
79
100
74
75
77
97
83
90
90
93
89
95
92
78
85
71
82
82
93
105
71
107
92
82
73
91
73
92
75
97
93
82
88
90
87
71
98
108
82
88
106
70
75
79
80
84
83
97
76
106
107
90
78
79
73
72
108
100
93
77
106
92
89
81
87
87
105
87
85
74
103
94
97
105
82
108
92
103
72
86
89
109
74
98
104
89
103
105
82
105
91
95
78
81
89
101
76
81
71
82
96
107
89
109
96
75
105
77
97
80
77
108
80
106
89
74
109
108
95
94
108
99
108
91
71
88
109
104
78
99
81
79
81
72
97
107
71
71
93
84
71
78
89
101
88
105
88
72
76
77
72
72
74
106
78
103
84
72
75
105
78
107
104
104
89
97
101
98
102
106
88
96
86
82
76
80
90
84
88
85
79
103
90
85
92
77
91
92
71
105
101
104
100
89
83
84
95
85
79
88
101
103
105
89
86
75
95
77
86
73
104
74
100
104
94
79
82
101
107
91
70
108
106
85
80
102
82
75
85
93
70
87
99
100
97
87
103
98
81
108
75
88
88
85
76
96
83
93
91
89
108
90
74
89
91
72
81
106
77
109
105
72
75
78
106
97
87
82
72
102
98
77
91
74
97
80
87
104
105
95
96
90
80
75
90
103
103
105
97
76
93
74
93
87
101
100
72
72
75
82
106
96
106
96
108
78
74
90
100
104
96
76
105
71
103
100
88
71
94
88
86
101
89
106
95
105
92
91
102
102
109
79
93
80
74
101
71
85
91
98
77
79
73
70
70
81
87
95
74
104
88
93
81
84
74
86
87
103
73
106
84
86
94
97
73
101
97
108
108
95
109
90
96
70
75
92
95
96
98
107
82
83
86
72
82
82
94
84
87
97
83
73
73
85
85
73
86
96
71
85
83
75
95
73
70
92
71
94
91
99
71
80
86
88
95
105
81
79
103
93
86
86
82
88
102
78
90
109
83
72
85
81
84
74
97
103
87
74
92
108
84
83
71
94
78
102
99
89
85
74
77
74
99
79
94
87
92
87
70
86
73
94
90
78
86
107
83
92
99
96
82
70
72
95
105
101
100
109
75
102
104
92
78
97
95
83
96
87
89
72
72
85
88
105
95
78
90
95
70
80
97
77
81
85
80
96
101
101
71
70
70
106
72
92
100
76
82
91
79
86
93
90
80
73
72
90
82
95
88
70
73
99
82
73
106
87
83
85
99
78
78
73
108
83
70
74
87
81
84
102
75
77
90
109
95
97
73
81
77
75
72
87
93
77
86
85
100
77
75
95
108
80
82
101
102
107
81
88
101
90
92
77
77
108
95
80
92
79
74
77
80
96
98
98
81
86
101
97
103
96
70
85
103
99
83
99
99
104
99
92
104
78
75
71
84
76
91
100
103
74
101
70
89
96
85
89
101
86
71
84
108
102
93
72
93
95
96
107
91
92
98
70
87
84
106
85
80
83
103
80
89
81
72
101
90
98
99
89
81
94
108
71
106
105
88
96
84
93
91
100
79
78
87
103
91
70
71
103
74
99
107
93
89
70
92
106
90
77
106
108
94
92
83
82
81
103
71
92
71
107
90
94
70
102
98
103
107
75
74
92
105
98
86
98
79
80
72
85
90
75
107
98
91
73
101
108
98
106
106
85
99
82
78
74
80
108
99
85
103
91
93
85
109
106
90
72
83
103
70
92
97
83
85
99
80
70
106
77
92
72
72
82
106
107
103
72
85
87
90
81
79
94
94
105
95
98
101
95
94
83
84
106
103
77
90
94
78
105
74
78
79
91
82
76
83
93
93
103
94
98
70
85
76
92
95
105
70
90
88
94
103
84
75
109
100
97
96
91
100
92
93
103
108
82
96
98
94
79
104
88
98
82
80
78
109
70
70
109
98
74
75
70
95
106
83
85
105
103
104
99
106
94
74
95
90
109
98
93
75
99
79
98
106
72
80
71
91
98
75
84
84
89
102
94
77
86
76
100
77
96
106
70
89
102
98
71
89
76
96
101
75
104
91
94
109
84
94
102
93
97
104
102
106
81
105
95
73
94
94
103
105
98
94
91
104
78
93
86
73
71
97
81
70
94
76
92
83
102
98
91
83
107
99
100
87
81
83
96
83
99
88
105
75
94
108
83
79
85
83
85
83
86
71
82
90
84
82
83
108
87
99
95
101
97
102
78
88
98
101
106
76
78
91
87
85
101
99
77
94
99
76
108
70
97
104
95
97
84
77
91
81
93
75
82
108
89
79
91
79
74
79
109
99
93
79
100
95
93
100
98
94
96
103
74
91
88
93
73
98
93
92
77
81
97
80
75
103
101
79
76
75
82
105
104
96
90
100
70
103
95
95
73
78
92
86
87
72
108
109
95
70
103
72
81
100
108
107
91
78
99
101
88
84
90
99
107
92
99
90
93
103
84
92
84
79
87
79
100
88
83
82
106
75
99
90
102
91
93
108
73
90
77
99
72
107
83
100
72
94
98
104
98
87
75
91
96
87
82
91
105
80
94
90
81
107
95
103
101
85
83
106
86
97
106
95
100
95
99
85
84
102
86
104
101
77
107
99
79
89
91
106
109
98
94
102
93
86
108
74
102
106
88
94
89
78
98
106
75
104
99
78
106
100
79
72
93
99
70
93
89
90
107
75
105
109
105
78
94
107
106
90
104
82
107
89
75
94
108
108
85
95
108
95
79
105
101
81
91
89
99
105
93
84
74
95
109
105
73
90
107
74
98
94
99
78
92
81
84
83
82
85
76
99
93
80
86
76
103
74
86
85
74
103
84
70
73
95
80
103
84
98
101
83
98
95
104
102
98
94
75
84
91
85
101
76
101
72
85
102
95
77
79
73
83
87
85
80
70
73
82
93
76
101
107
95
76
109
95
72
95
98
105
82
71
91
107
99
70
81
76
102
108
72
101
84
70
96
81
99
75
77
84
102
88
100
94
85
78
80
71
70
106
75
93
108
94
104
91
103
79
81
109
100
79
92
73
71
75
100
104
70
103
77
86
95
72
71
109
101
90
87
105
95
100
99
96
106
105
76
80
72
72
81
109
96
70
73
107
80
98
81
81
97
73
95
87
90
100
102
89
87
79
108
100
92
99
88
97
100
86
71
72
95
105
105
95
75
106
71
82
97
91
88
77
108
83
109
104
78
108
97
90
108
85
77
73
99
80
107
73
91
102
89
75
106
98
104
80
92
91
70
95
90
102
105
99
72
100
109
104
76
80
87
79
108
107
75
96
86
107
91
95
70
81
73
83
76
107
104
91
76
82
85
73
106
84
99
84
109
100
104
104
83
104
106
97
101
99
70
104
109
108
90
108
101
104
81
77
74
76
71
70
97
85
101
89
97
75
96
79
73
75
77
95
75
108
104
79
105
76
109
105
78
76
86
104
73
89
79
100
70
93
86
81
93
94
86
70
79
108
86
93
94
73
70
86
84
84
90
98
71
70
90
77
99
105
72
82
105
70
108
85
79
86
77
93
88
75
88
105
109
80
102
109
75
70
73
109
103
104
103
73
104
81
75
73
100
85
80
83
101
109
95
99
101
87
99
82
80
86
99
74
90
93
96
104
97
90
87
83
107
81
89
77
106
85
81
88
95
94
102
74
94
72
82
92
81
105
90
103
87
77
78
80
102
77
91
78
102
77
96
81
88
101
102
77
71
83
100
87
102
94
105
96
107
86
107
72
98
98
88
77
100
106
75
99
74
79
73
94
84
71
92
94
95
109
87
82
79
89
100
81
73
76
107
84
76
79
99
96
72
108
94
91
72
108
96
85
92
90
72
97
83
89
98
99
103
74
108
92
105
72
72
92
86
72
106
95
90
98
82
92
76
101
100
74
90
107
86
75
103
72
73
94
106
73
76
79
72
98
101
82
93
81
106
88
103
89
103
73
91
89
104
75
109
87
81
81
98
79
77
88
104
80
92
86
81
104
80
75
91
71
82
77
91
98
104
94
99
105
106
73
106
75
109
86
107
96
95
97
105
88
76
106
89
106
81
72
80
87
71
79
103
96
106
84
84
77
75
94
75
87
106
88
100
96
72
84
95
98
76
98
109
86
92
81
105
70
87
109
96
76
89
82
92
77
70
104
95
80
74
87
86
75
81
101
75
72
82
86
96
76
81
75
105
81
86
94
97
108
96
85
95
81
93
93
91
101
70
80
76
93
79
90
100
101
93
73
94
100
107
99
78
94
78
93
74
97
96
89
80
92
90
95
80
77
101
71
107
74
74
77
76
99
88
102
85
78
103
75
101
90
91
108
82
80
91
71
98
86
90
81
102
70
86
75
80
104
103
73
108
99
98
103
93
89
87
92
74
100
71
84
81
99
74
89
82
90
72
90
96
105
102
70
75
91
91
107
73
105
92
106
78
72
109
109
90
81
74
100
74
72
109
84
97
71
71
105
81
84
84
109
100
96
90
98
104
73
83
76
106
74
76
107
82
89
77
96
80
90
97
85
101
106
88
106
102
95
84
109
92
70
96
81
71
92
96
75
76
105
76
105
108
74
87
99
87
94
96
79
73
108
94
72
108
99
89
70
94
89
79
92
93
104
108
78
104
78
70
97
79
84
80
103
86
73
84
107
94
72
79
107
100
103
87
108
78
81
96
73
83
95
96
95
83
98
88
91
103
100
84
109
98
80
109
81
104
87
93
107
85
77
81
107
74
99
70
97
75
86
101
99
85
79
73
101
94
109
84
72
85
96
100
102
100
103
83
109
74
76
72
74
78
102
104
72
89
88
97
97
84
96
88
91
90
91
81
103
71
79
95
70
73
105
101
77
77
95
108
76
85
81
102
105
73
84
106
89
108
94
105
98
104
89
89
82
84
106
87
76
93
73
90
77
91
78
94
98
78
82
87
77
96
76
70
79
100
77
96
71
80
78
85
84
71
72
95
96
90
76
76
93
80
76
93
77
100
89
80
108
102
87
83
80
100
102
106
93
105
83
106
90
71
94
87
104
82
101
75
92
109
72
104
74
97
102
88
108
98
89
75
100
109
78
97
103
71
88
72
98
104
108
104
97
88
71
93
93
88
79
109
70
84
96
75
90
87
105
91
109
104
86
87
89
75
95
89
95
91
88
105
71
79
98
82
85
91
106
80
109
81
88
93
79
87
83
85
78
74
108
109
102
99
96
75
76
105
73
106
107
80
71
85
76
72
91
71
101
105
85
104
109
101
79
91
71
78
73
101
109
107
78
96
71
77
79
89
93
94
70
94
97
108
102
108
72
91
105
80
74
105
98
93
71
85
100
70
109
98
106
100
88
81
73
90
74
77
83
87
75
91
78
107
97
97
108
78
91
70
75
85
75
99
80
103
75
96
95
103
90
98
87
98
87
84
92
76
108
100
100
78
86
103
79
98
108
87
104
98
79
75
81
94
97
72
94
109
73
87
73
86
93
87
70
95
97
108
87
102
79
104
107
93
71
90
90
107
82
76
84
97
73
89
107
99
100
103
86
72
72
89
104
107
79
72
88
75
102
74
98
95
83
91
94
102
70
92
71
78
98
82
87
76
84
81
89
75
75
72
71
88
104
86
109
70
72
93
101
109
79
109
101
105
104
77
70
95
106
102
78
99
93
72
81
72
86
98
107
104
79
91
105
77
106
78
80
102
95
86
78
102
100
94
72
74
85
92
84
74
76
71
88
81
82
79
82
80
79
76
105
88
95
89
92
95
78
98
74
93
100
100
97
94
84
108
99
107
82
74
94
109
92
95
107
81
106
94
106
91
96
95
107
100
84
105
104
101
99
105
73
105
89
94
104
85
88
95
78
108
104
87
102
81
80
71
105
107
77
77
81
104
81
92
106
75
77
108
109
96
74
91
79
91
91
100
97
83
95
95
74
108
71
81
90
93
99
70
72
103
90
92
95
80
73
90
84
79
107
105
99
88
98
81
106
74
93
87
78
88
90
85
93
85
86
90
84
75
75
92
82
93
97
108
84
107
89
89
74
102
101
104
90
77
100
90
108
104
85
77
70
99
97
72
73
93
86
90
99
73
105
90
78
108
75
84
104
81
72
82
109
81
108
89
74
103
71
102
108
91
83
89
89
77
75
80
76
93
70
87
71
96
100
79
91
86
80
92
84
97
87
92
91
72
96
93
108
85
92
86
105
92
96
72
78
102
80
78
72
93
103
83
79
80
85
99
107
105
87
101
86
109
77
79
94
99
72
107
102
97
75
80
101
107
83
76
79
94
90
105
75
108
104
93
77
105
83
79
77
94
105
94
72
91
107
100
84
98
101
75
106
97
99
71
87
104
86
100
75
84
94
97
79
76
98
86
104
106
87
74
97
76
70
87
104
84
97
82
103
92
78
78
86
86
100
72
95
107
102
105
98
106
71
103
83
99
77
77
104
109
104
92
71
85
93
81
88
104
86
105
78
82
108
75
84
88
72
77
93
99
85
98
85
78
99
90
70
106
96
90
93
96
79
101
71
87
78
75
102
94
82
106
89
92
70
90
106
102
76
93
73
97
99
79
106
73
74
90
74
73
76
101
88
100
76
102
105
99
82
77
84
72
79
99
80
90
101
92
90
74
91
89
107
77
72
104
106
107
101
103
102
96
80
87
87
81
78
78
85
105
73
72
105
76
90
95
75
92
89
96
107
82
91
87
84
103
83
102
109
76
76
82
82
95
109
71
99
78
86
109
84
81
90
91
84
99
86
75
90
105
105
78
93
103
100
73
106
87
92
88
108
99
102
74
102
85
82
93
109
101
99
108
84
75
70
86
95
101
89
73
101
99
78
102
96
97
79
79
102
77
108
70
85
105
91
88
82
75
96
74
75
84
94
74
94
70
84
106
105
81
107
80
92
88
87
105
84
79
84
80
81
96
75
81
105
70
109
83
86
73
71
101
94
84
102
96
91
99
101
85
98
105
109
105
87
105
77
78
89
83
74
92
73
89
88
88
97
106
81
75
99
87
94
94
103
77
108
76
105
74
96
90
82
107
95
90
102
77
95
86
71
83
82
83
104
104
76
107
100
109
82
72
103
77
77
70
101
78
104
80
74
107
94
102
97
96
80
93
98
102
78
104
86
72
91
101
84
109
70
91
89
102
78
75
75
82
109
108
103
97
81
108
92
94
95
99
96
88
80
74
105
82
81
100
86
106
78
99
103
103
103
71
74
71
101
75
88
71
94
88
103
100
71
70
73
82
98
80
77
83
105
71
92
82
73
98
71
89
82
93
104
71
78
95
102
70
72
80
76
84
71
91
84
104
99
80
104
80
88
101
97
105
81
94
76
78
102
83
106
108
96
89
86
70
76
92
109
76
103
107
105
73
97
76
86
109
101
105
89
80
80
83
101
105
88
87
71
86
87
102
93
76
72
89
83
98
97
92
102
73
97
99
77
86
92
99
109
99
109
74
99
98
91
97
87
108
87
72
103
98
109
83
73
82
97
76
102
83
108
82
91
76
79
96
106
82
103
104
89
89
89
90
72
86
72
95
73
106
77
99
99
73
79
83
79
100
91
99
71
99
101
99
83
95
80
91
79
87
82
76
74
73
100
97
103
92
88
70
97
99
100
79
91
84
102
85
94
98
72
101
102
72
102
105
79
104
77
99
75
99
78
70
104
81
76
87
80
107
99
109
105
71
97
77
86
75
81
89
85
102
85
90
75
76
76
91
85
80
77
96
80
71
107
79
91
74
89
85
83
92
88
100
79
77
94
108
70
94
89
88
102
70
109
98
102
77
82
105
70
103
105
106
109
75
96
85
99
100
77
90
97
95
103
100
93
94
91
100
98
93
94
73
80
107
78
94
88
92
70
84
74
84
97
98
90
102
70
82
72
70
85
87
88
92
74
100
106
82
103
78
74
87
71
76
90
85
104
77
71
96
96
91
82
81
76
71
103
106
85
102
107
98
100
74
105
90
70
108
102
73
99
96
86
70
92
81
78
100
92
72
108
107
81
71
76
92
75
74
108
109
92
104
82
78
87
93
85
75
78
108
105
99
79
93
102
80
103
97
107
80
74
101
88
91
81
78
81
102
85
98
98
104
107
104
87
75
89
72
82
93
72
101
75
87
90
106
75
94
85
107
89
72
81
78
81
105
71
106
106
87
99
95
87
107
99
78
104
81
104
73
98
73
100
86
92
95
84
81
83
103
81
88
104
70
82
91
73
77
76
107
70
79
92
97
76
109
100
74
103
88
76
74
75
95
83
72
84
97
95
97
95
85
89
95
89
80
100
98
102
95
71
95
108
93
81
81
97
96
101
109
91
95
86
83
71
70
109
90
75
102
80
106
80
102
77
88
106
103
88
101
90
86
97
72
78
75
97
102
79
90
79
87
83
95
86
98
92
104
89
84
105
85
106
109
92
99
78
107
84
106
77
107
99
100
89
85
99
87
94
72
108
100
73
102
97
104
91
97
84
99
72
102
79
88
74
73
93
92
108
81
79
83
84
93
91
95
72
103
91
98
101
96
106
78
92
92
100
82
78
103
94
80
81
89
91
77
99
78
105
73
102
81
84
72
93
98
105
80
86
109
93
92
88
109
71
79
79
88
84
93
102
101
90
103
85
92
103
78
75
85
90
82
109
83
105
98
79
98
85
87
90
95
91
92
79
71
93
73
91
75
73
73
84
98
104
88
83
103
97
105
90
109
102
102
88
88
72
97
107
78
71
91
101
93
76
92
105
103
91
90
72
76
107
101
87
102
104
74
92
107
99
70
97
102
103
78
80
103
71
85
88
108
71
86
78
88
89
90
71
92
89
91
93
91
82
74
96
90
106
95
80
87
75
79
104
104
92
90
92
96
88
101
103
79
109
70
86
79
104
79
81
102
70
100
91
104
78
96
87
84
94
85
94
99
107
106
102
108
85
74
109
100
82
99
95
76
105
84
92
99
90
83
70
77
76
77
105
76
79
95
91
86
84
101
94
80
82
97
76
90
82
86
91
74
76
109
105
77
107
72
97
107
79
93
70
90
106
86
96
78
70
70
109
96
84
70
81
108
72
98
105
72
83
85
109
74
80
76
108
105
108
82
100
95
96
103
90
84
96
86
71
102
97
103
84
89
87
98
103
90
100
70
94
88
80
97
91
92
77
104
97
96
90
105
79
87
99
95
98
92
103
86
103
93
98
104
97
81
99
71
104
87
80
92
107
89
89
80
95
89
99
105
104
75
86
86
79
100
97
102
101
73
101
102
88
74
103
74
83
72
105
87
74
93
91
102
79
83
94
75
70
72
106
70
80
73
105
105
78
77
99
100
76
83
83
86
81
85
82
85
75
87
98
72
88
107
109
74
82
95
72
97
91
106
98
88
106
98
81
74
100
98
80
73
86
98
73
102
90
71
81
89
97
109
76
74
88
82
103
73
77
100
93
108
84
78
91
71
109
79
96
89
88
99
71
92
76
71
72
93
100
71
70
77
108
106
73
103
98
88
95
91
80
91
94
106
73
76
78
75
82
79
101
102
75
89
106
87
70
81
94
108
103
93
80
90
100
103
104
86
104
104
86
72
106
82
92
100
91
84
97
84
88
82
103
104
85
84
96
88
99
96
100
75
74
74
70
97
83
90
81
70
71
71
92
95
108
75
85
74
74
95
85
81
96
97
72
80
109
98
97
104
84
85
75
98
94
77
90
71
102
86
83
88
98
87
98
98
102
94
83
84
77
76
83
76
82
75
79
86
83
109
93
78
96
79
98
73
107
70
91
95
80
80
80
76
86
79
70
79
95
81
108
82
77
107
81
83
109
96
84
74
80
108
75
100
95
70
96
71
88
109
73
96
71
74
79
74
102
79
98
95
95
78
90
107
81
85
105
87
90
72
103
92
108
96
102
72
99
91
95
78
101
75
92
73
107
83
104
81
96
72
92
90
87
100
108
104
98
73
105
88
80
76
88
91
94
80
83
84
106
84
102
100
91
87
100
75
109
108
107
90
100
73
86
87
95
100
106
81
95
79
91
109
80
107
87
88
103
84
75
70
92
100
77
90
98
106
89
70
109
76
104
70
107
82
79
72
94
85
92
102
73
96
77
80
81
94
76
91
102
84
86
71
90
96
84
72
97
75
92
82
98
75
80
82
77
91
70
107
77
71
74
79
72
91
105
95
92
107
79
92
76
81
108
78
92
98
99
77
73
106
83
87
108
105
105
97
97
77
93
81
83
106
84
75
83
96
86
107
72
77
105
99
97
106
86
77
73
81
82
99
74
71
79
108
85
103
76
106
88
88
107
98
73
79
74
92
74
104
100
108
70
105
88
71
108
71
106
82
73
94
105
96
98
83
89
74
83
84
105
92
73
74
72
94
103
85
100
80
95
97
83
73
86
89
77
82
93
97
74
102
70
79
88
77
84
93
71
97
94
88
105
96
93
77
100
84
92
85
74
88
71
94
99
76
79
108
105
98
70
103
76
73
77
71
87
74
70
109
99
89
95
92
82
70
100
88
103
85
96
94
76
75
109
108
84
99
82
82
106
80
108
89
82
91
81
107
86
78
97
84
83
82
85
95
78
78
109
83
105
106
108
96
83
99
79
85
78
87
94
108
90
75
90
104
82
99
96
85
94
99
76
105
97
75
89
81
84
72
72
95
82
80
88
91
77
102
77
96
73
96
100
89
96
109
101
107
94
90
74
92
85
95
96
92
100
94
75
107
75
107
86
99
83
90
107
104
75
109
104
109
78
70
83
89
107
84
88
106
109
73
88
80
85
75
84
101
108
89
82
100
85
105
79
104
74
79
102
94
78
104
88
85
75
104
76
100
109
105
89
70
103
70
82
82
108
103
89
85
97
77
79
84
105
80
82
108
80
86
73
93
84
95
92
95
81
95
95
107
93
84
88
101
92
97
71
105
76
74
94
107
82
105
97
91
87
97
96
97
70
80
106
78
95
106
77
75
73
107
75
109
99
109
78
82
84
92
88
77
107
94
76
104
81
103
97
82
79
99
88
95
98
101
92
96
94
80
74
74
89
100
81
99
87
100
75
106
95
109
100
71
83
89
91
107
93
109
79
104
105
104
99
92
70
77
109
99
105
98
108
91
75
106
72
108
81
88
78
95
93
78
76
109
75
76
90
84
79
92
106
94
93
94
81
82
72
96
70
79
95
96
82
70
86
85
73
96
97
82
80
72
86
93
71
106
99
71
98
75
77
84
82
75
75
86
105
97
74
109
70
85
90
98
109
100
73
92
75
79
87
75
105
93
90
82
102
83
91
82
82
105
104
93
80
95
91
96
92
95
107
85
70
84
73
104
77
100
70
96
87
74
107
104
95
87
89
103
73
82
107
85
107
77
72
79
84
106
77
92
97
86
99
104
85
101
100
89
89
78
92
73
76
104
102
92
85
77
84
75
87
102
99
79
100
104
94
73
109
85
81
106
105
93
105
70
100
79
107
103
73
75
99
95
76
98
70
94
81
104
97
93
89
88
83
81
102
80
80
76
84
95
96
97
107
85
71
79
82
106
86
72
87
105
107
106
108
94
100
77
108
70
98
78
70
86
107
99
96
79
104
96
81
80
96
82
104
77
100
106
104
102
94
85
88
91
76
97
102
102
105
106
85
81
109
78
79
107
91
101
76
109
84
101
82
81
91
109
95
93
104
89
78
84
97
101
95
94
102
78
90
74
91
93
92
73
92
93
99
92
92
79
71
88
70
107
82
73
71
106
73
85
100
74
107
83
104
90
90
84
105
87
71
80
92
70
107
108
77
82
107
75
76
88
91
90
76
97
79
104
70
89
102
102
78
70
104
83
76
90
89
76
109
92
102
82
75
100
72
100
74
102
95
87
92
81
96
90
96
105
98
87
79
89
85
103
103
101
76
101
83
70
85
94
106
87
103
79
71
89
99
96
98
90
94
96
109
74
93
89
73
105
82
93
97
91
103
81
87
86
104
88
71
94
70
83
89
71
89
104
90
99
77
73
85
99
104
79
109
83
91
102
71
74
88
74
78
79
75
82
87
75
75
84
102
98
107
90
80
91
84
100
99
75
70
86
107
84
70
99
78
92
82
89
74
83
75
95
85
77
74
84
109
74
70
106
74
74
77
76
81
92
97
91
82
88
85
87
76
76
88
108
87
77
97
83
90
78
76
90
102
109
75
71
83
92
89
73
73
93
99
103
74
106
88
102
71
108
90
84
80
74
77
74
103
85
104
106
87
89
74
94
105
103
71
81
79
80
75
105
93
76
70
77
93
101
80
91
82
77
103
78
79
71
94
78
96
101
72
88
105
78
94
96
94
98
102
108
99
96
77
75
101
95
101
109
104
100
106
85
83
101
89
84
97
99
99
72
105
93
89
101
88
90
80
106
109
95
71
95
94
91
70
70
73
102
97
80
85
97
77
105
98
106
107
95
70
70
83
70
98
77
90
72
108
88
87
99
70
78
106
99
103
80
87
90
81
97
106
101
107
82
82
89
71
77
107
101
70
96
102
82
91
100
84
81
70
79
92
107
82
103
89
95
80
80
71
87
109
95
71
84
98
80
73
76
90
101
97
97
98
72
101
99
76
100
70
96
100
78
102
107
87
105
73
99
104
75
71
86
109
90
96
86
90
83
73
82
100
84
86
72
72
80
96
74
109
107
97
78
95
71
102
74
102
86
101
104
95
72
78
94
97
72
87
82
98
74
82
92
83
104
98
108
90
102
70
85
70
106
77
82
88
104
75
97
96
76
107
101
85
97
101
104
105
74
73
96
101
79
85
105
89
106
92
92
86
75
104
70
103
89
97
84
109
73
86
102
75
108
75
90
74
76
108
106
94
71
97
96
80
88
82
81
100
82
101
88
94
78
101
85
73
79
94
85
80
84
95
91
105
86
102
87
78
98
74
71
78
89
109
75
76
70
80
109
102
104
100
72
88
73
102
81
106
94
83
108
104
88
77
96
72
81
108
77
73
75
80
84
82
70
109
96
89
97
88
100
77
75
98
93
86
106
107
106
83
84
97
97
108
76
88
75
106
79
108
83
108
71
85
107
75
79
74
87
103
105
106
70
75
93
94
71
87
90
83
104
93
98
71
93
102
81
81
94
78
102
102
73
109
70
98
107
79
92
84
89
87
109
77
108
95
92
73
92
107
97
103
76
79
88
94
102
101
79
104
88
76
103
84
80
109
79
78
100
72
93
82
101
79
95
89
101
105
97
91
102
82
103
86
101
80
70
101
95
97
78
85
90
99
98
100
95
101
99
82
87
100
98
109
100
72
77
95
97
89
76
99
100
92
92
72
75
74
91
77
93
74
77
86
99
109
71
70
94
75
98
70
82
109
82
84
84
99
104
71
88
79
76
74
71
73
103
71
102
108
96
78
98
104
85
70
91
105
85
91
78
81
92
81
88
82
94
104
95
94
79
96
99
91
99
87
78
89
73
81
87
77
101
87
93
91
71
75
74
71
78
82
78
101
96
75
86
75
78
72
76
83
84
107
105
101
95
99
81
92
106
94
78
95
106
105
103
75
105
101
73
72
96
76
78
97
104
94
78
96
82
101
84
105
93
79
107
77
105
109
80
106
82
71
73
97
103
83
94
81
75
86
103
106
92
81
87
108
82
79
79
97
82
79
78
96
84
77
80
107
81
70
100
75
89
84
90
91
84
86
108
91
87
75
101
78
74
80
104
86
103
73
82
94
77
77
82
71
103
77
104
87
103
109
76
72
70
108
88
85
72
97
89
106
83
87
97
108
97
106
73
95
103
98
94
71
85
95
89
96
102
78
91
106
82
83
88
79
91
71
84
103
108
101
75
71
81
95
109
101
98
70
98
87
90
82
99
84
72
71
106
82
107
88
90
98
91
80
81
82
94
95
84
73
80
81
92
96
95
94
89
95
78
85
108
70
79
106
81
77
87
82
77
109
77
93
108
81
82
75
86
87
80
81
74
84
76
86
76
71
94
98
107
84
99
71
78
100
96
106
73
98
89
75
82
89
91
106
89
93
87
93
95
96
88
104
94
86
104
92
97
74
85
107
101
98
90
75
89
89
107
89
90
84
88
96
90
95
78
74
74
80
90
77
85
75
80
82
71
88
75
82
77
91
102
74
79
91
82
89
100
77
73
104
92
97
82
105
108
93
78
98
102
104
83
100
103
90
102
95
109
91
78
73
96
97
95
79
71
93
101
98
71
96
105
102
80
98
72
71
81
108
82
85
93
79
81
98
93
100
75
96
72
101
81
96
104
100
89
81
71
74
105
70
82
82
77
100
101
80
98
106
71
108
100
81
71
76
85
86
103
73
71
77
73
72
108
104
71
107
108
73
78
97
103
100
102
108
83
73
99
97
80
97
96
86
74
70
109
103
103
88
70
105
90
77
71
106
87
89
84
104
72
94
77
74
87
93
106
92
84
78
99
79
106
109
108
80
109
109
79
104
87
81
106
92
92
105
98
109
98
98
96
106
76
89
107
101
73
73
78
76
96
91
100
81
71
101
97
76
85
102
99
79
101
97
97
106
100
72
74
88
92
83
82
105
106
97
88
106
84
103
83
74
71
71
78
103
72
90
81
104
106
80
107
108
72
79
85
75
83
75
88
98
102
101
106
77
72
79
101
105
97
71
96
104
97
98
106
96
85
107
92
94
108
84
86
71
73
76
93
95
97
89
83
109
88
72
80
87
71
75
72
98
97
74
85
85
93
109
71
102
70
105
96
93
82
89
100
104
104
103
97
78
70
99
76
96
106
99
109
85
79
100
83
109
81
88
107
104
109
96
109
80
107
84
79
108
101
80
86
79
77
105
98
72
98
73
82
75
91
79
88
80
79
83
94
106
100
104
73
107
87
91
108
70
91
107
80
93
85
81
75
84
88
74
103
94
92
82
93
78
93
107
105
97
97
79
88
90
89
99
103
85
75
100
77
72
96
78
100
87
74
75
92
96
96
73
73
70
77
71
85
73
102
88
81
102
91
105
73
91
95
72
77
94
75
102
71
94
80
103
98
106
84
94
79
105
79
86
70
74
94
79
83
93
79
102
71
96
94
80
97
103
95
96
92
86
70
87
83
81
92
99
74
86
82
100
70
81
91
90
96
104
108
99
78
72
72
92
91
72
74
85
97
108
97
98
99
85
107
80
71
87
91
101
92
91
93
82
73
78
101
109
102
98
82
90
79
75
80
99
102
93
86
96
104
92
77
104
83
83
83
72
109
81
87
99
97
81
109
91
102
106
84
78
89
70
95
85
76
70
73
82
79
78
92
88
102
85
107
95
83
80
86
95
101
88
78
101
80
89
106
92
87
75
74
78
80
94
106
76
103
74
81
90
102
109
82
109
76
73
90
105
75
101
100
79
102
74
81
108
82
81
92
88
108
91
85
85
99
73
84
94
104
77
89
74
76
81
81
81
104
79
100
94
75
104
100
94
71
97
72
96
109
74
107
109
83
73
78
106
91
103
101
75
77
73
73
107
96
82
81
89
101
70
79
85
76
82
96
76
83
107
107
72
75
93
78
75
86
101
101
93
71
96
77
84
96
84
81
108
98
104
74
96
88
96
84
95
109
108
102
74
71
106
90
101
108
104
94
91
108
94
82
103
71
76
83
73
97
72
104
70
82
99
75
92
75
108
98
75
102
100
71
95
77
76
76
78
70
92
107
109
86
70
85
88
99
99
81
81
70
108
71
81
73
99
78
109
101
74
107
90
96
100
99
92
109
83
82
108
107
90
77
80
99
92
77
71
108
77
93
85
81
88
78
100
86
72
89
108
71
82
85
92
98
83
89
73
109
94
76
102
83
89
91
101
99
97
108
85
89
90
80
101
81
99
93
71
106
82
109
73
80
84
89
72
76
96
107
109
87
93
74
85
92
88
103
108
70
91
80
97
107
98
74
96
95
95
100
108
91
89
74
99
104
97
95
87
79
109
95
105
82
72
92
105
104
105
103
83
101
75
73
100
96
101
107
102
82
107
99
89
91
93
79
106
87
79
87
80
81
105
102
100
95
71
89
73
102
75
76
85
103
73
89
70
90
92
74
96
82
79
105
94
90
87
102
96
86
79
81
76
93
76
80
79
101
74
83
77
71
94
86
104
76
94
71
86
73
85
96
78
79
100
79
100
95
101
85
91
92
97
108
106
104
86
77
106
100
81
80
79
90
90
84
93
101
104
98
84
84
74
101
103
82
104
85
98
106
81
109
75
89
70
81
91
108
95
108
76
108
84
81
100
87
87
96
91
81
88
83
82
107
105
97
100
98
100
107
73
83
73
94
81
70
76
88
102
104
87
102
101
94
84
101
103
86
93
96
90
72
95
90
109
94
92
92
101
72
96
81
81
82
95
71
84
98
77
89
76
77
102
83
95
81
71
94
70
96
84
85
100
107
92
71
96
101
89
78
80
106
101
86
97
80
106
98
101
93
96
100
77
73
92
99
95
109
78
74
105
84
76
103
79
105
102
97
73
105
82
70
80
90
81
91
74
101
97
109
108
88
84
80
96
94
89
78
96
99
74
106
73
83
94
70
83
74
103
106
80
74
102
85
107
104
77
96
107
103
102
73
80
82
99
86
94
92
78
108
95
106
73
86
78
75
104
105
73
87
86
80
102
102
85
99
98
82
90
93
77
96
72
78
98
107
76
70
86
82
73
84
71
98
93
78
87
102
99
82
88
71
99
92
75
103
87
104
76
90
95
82
96
87
95
84
97
99
87
80
105
104
91
79
102
108
84
98
93
92
80
87
98
82
93
85
102
84
84
99
90
80
83
103
75
109
107
107
78
75
108
76
94
86
85
109
100
103
80
89
87
75
109
105
84
104
94
77
79
102
100
70
107
90
104
75
78
97
76
106
73
74
75
98
70
85
109
94
106
75
96
84
78
93
92
95
80
82
85
83
104
107
103
103
104
98
85
103
90
107
74
74
97
89
76
73
81
75
101
82
72
89
108
91
81
74
83
91
86
79
74
86
94
102
77
103
72
87
74
107
95
99
93
75
94
79
71
74
70
91
100
72
93
79
84
86
97
104
92
75
86
80
78
95
84
100
94
102
92
74
95
79
100
106
85
93
81
100
84
93
85
90
81
97
90
96
104
109
78
73
94
80
87
92
87
102
88
87
83
83
92
98
76
82
82
87
75
95
74
72
91
90
88
90
94
85
78
81
96
71
71
76
105
107
81
75
102
74
98
78
90
80
71
87
105
78
72
106
109
107
88
92
77
104
84
90
106
76
82
92
84
78
100
74
93
89
101
93
75
101
91
81
92
83
77
97
86
89
87
100
77
103
100
79
96
73
84
99
85
86
78
104
84
80
79
98
74
101
91
83
103
85
107
73
82
85
72
73
107
100
71
108
97
108
94
97
85
83
109
100
103
98
81
70
88
102
109
76
104
77
82
92
80
99
105
93
82
86
94
78
104
103
71
90
91
82
84
75
101
79
98
101
104
90
91
108
96
87
73
96
79
91
83
72
104
95
86
85
94
94
71
73
93
73
72
95
81
89
89
84
102
93
105
102
72
100
93
92
85
109
89
79
95
85
93
80
85
105
89
74
85
76
108
72
91
84
81
106
93
88
83
84
82
108
83
104
72
73
95
86
85
94
77
88
96
76
81
99
81
104
83
99
70
106
100
101
104
70
106
107
102
104
107
76
88
70
95
82
102
97
72
72
97
75
78
92
82
79
86
81
107
94
91
72
107
70
104
88
86
88
101
99
83
97
80
107
87
89
101
85
99
91
97
108
90
108
108
89
78
96
101
91
83
81
74
105
99
73
88
87
75
90
80
73
70
91
107
97
97
70
95
71
87
72
106
90
70
89
102
74
106
109
86
103
88
74
96
79
94
91
75
84
97
84
75
109
78
70
91
95
77
77
82
98
99
89
90
104
71
82
77
108
104
87
72
104
76
73
100
81
108
107
90
71
102
93
87
79
83
90
105
83
83
86
73
78
93
92
97
80
108
102
88
73
78
102
75
99
70
109
79
104
93
83
100
94
92
94
100
80
77
78
76
96
75
80
98
81
71
105
104
90
101
86
80
79
102
98
97
98
94
72
96
83
105
81
82
75
82
95
73
103
108
75
109
75
85
77
101
109
96
74
95
76
89
82
92
81
70
83
79
92
84
80
104
106
104
70
91
85
104
72
70
77
89
73
100
94
89
91
107
90
87
93
101
104
98
106
101
92
72
80
104
98
73
86
70
77
106
98
96
101
94
81
77
89
90
96
88
96
95
107
76
86
86
76
99
93
71
86
75
106
99
82
90
90
83
90
75
77
96
100
89
90
100
82
108
107
80
80
106
89
88
101
87
99
92
101
88
100
104
77
85
91
95
73
85
102
99
84
70
73
104
86
77
84
82
98
107
75
83
72
105
90
90
80
85
96
89
89
101
83
93
89
99
85
107
85
90
94
105
107
80
105
83
102
109
107
88
82
91
74
100
73
78
82
70
102
93
78
101
79
106
85
70
88
86
106
89
102
81
104
94
96
81
86
90
109
80
96
94
98
107
79
97
75
80
90
93
93
80
76
96
97
102
95
92
107
94
73
96
107
105
102
72
107
72
71
91
107
87
98
100
98
84
82
108
70
104
104
109
70
70
90
82
109
97
107
85
97
99
91
73
85
75
88
97
108
86
76
88
80
105
90
75
98
78
100
83
90
102
70
88
81
78
88
75
92
100
104
106
76
76
94
74
108
78
84
87
99
106

