pr124
124
1 4475 8657
2 4475 8969
3 4475 9407
4 4475 9719
5 5450 10475
6 5475 9750
7 5475 8650
8 4575 8425
9 5425 3300
10 5425 3000
11 5425 2400
12 5425 2100
13 5425 1800
14 6000 2375
15 6375 2375
16 6000 3375
17 6375 3375
18 6475 4675
19 6475 4875
20 6475 5275
21 6475 5475
22 6100 6675
23 6350 6675
24 6350 7275
25 6100 7275
26 6550 7625
27 5775 8650
28 6075 8650
29 6375 8650
30 6375 9750
31 6075 9750
32 5775 9750
33 6975 9750
34 6675 9750
35 6675 8650
36 6875 8650
37 6850 7275
38 6600 7275
39 6600 6675
40 6850 6675
41 7100 5425
42 7100 5275
43 7100 5075
44 7100 4875
45 7100 4675
46 6925 3300
47 6925 3000
48 6925 2700
49 6925 2400
50 6925 2100
51 6925 1800
52 7700 3725
53 7850 3700
54 7700 4725
55 7750 7475
56 8125 7525
57 8500 7475
58 8500 8225
59 7600 9025
60 8350 9025
61 7975 9075
62 8350 9775
63 9375 11225
64 9531 11225
65 9475 10275
66 9275 10050
67 10375 9525
68 9687 11225
69 9843 11225
70 9999 11225
71 10155 11225
72 10311 11225
73 10467 11225
74 10623 11225
75 10779 11225
76 10935 11225
77 11091 11225
78 11247 11225
79 11403 11225
80 11559 11225
81 11175 9800
82 11275 9475
83 10650 9400
84 11275 9175
85 11125 5350
86 11025 4750
87 11000 4600
88 11000 3600
89 11650 3350
90 11725 4825
91 12500 5950
92 11715 11225
93 11871 11225
94 12027 11225
95 12183 11225
96 12339 11225
97 12495 11225
98 12651 11225
99 12807 11225
100 12963 11225
101 13325 6100
102 13100 4625
103 12825 3800
104 12850 2425
105 13585 1975
106 13585 2131
107 13585 2287
108 13585 2443
109 13585 2599
110 13585 2755
111 13585 2911
112 13585 3067
113 13585 3223
114 13585 3379
115 13585 9615
116 13585 9771
117 13585 9927
118 13585 10083
119 13585 10239
120 13585 10395
121 13585 10551
122 13585 10707
123 13585 10863
124 13585 11019
84
92
84
84
70
108
108
102
70
99
76
96
90
71
74
100
85
78
74
103
100
75
79
80
80
104
95
94
85
85
86
83
91
80
101
107
99
86
85
82
84
105
102
77
70
83
109
103
70
105
102
79
108
107
70
104
106
107
76
106
78
76
89
87
73
93
109
96
97
94
108
104
99
90
97
73
77
70
82
70
100
81
100
89
81
93
80
94
90
101
78
96
70
102
73
75
72
83
100
73
103
99
83
80
77
70
101
92
79
97
95
105
101
78
93
108
99
80
109
83
103
93
109
105
84
84
102
95
102
89
80
71
70
78
105
99
88
109
80
70
100
83
71
80
74
103
96
104
98
76
78
85
90
99
71
102
81
93
97
83
92
95
107
75
78
95
86
95
94
101
84
87
75
86
95
75
75
93
93
109
109
98
74
86
91
96
102
93
93
82
81
79
82
102
77
91
71
109
99
102
101
105
72
95
94
103
73
91
72
103
76
75
101
90
97
76
90
108
90
96
103
82
103
91
79
86
100
97
97
96
79
86
85
103
93
78
91
104
92
102
96
70
102
74
75
99
92
89
79
78
81
70
105
70
73
104
85
78
106
92
99
97
82
105
88
87
89
84
75
81
80
93
77
98
90
82
84
86
98
99
90
71
101
78
97
94
81
108
106
95
79
75
71
104
85
85
85
107
102
97
102
105
70
73
101
82
81
108
107
83
83
108
98
79
70
106
80
73
79
73
95
88
105
72
75
92
87
100
75
104
108
94
91
105
85
96
73
70
81
86
87
73
104
91
96
101
82
73
102
71
89
109
100
82
106
74
72
86
96
101
107
89
97
73
107
96
93
76
89
80
108
97
79
96
80
80
100
89
83
91
99
105
97
90
72
84
89
89
109
77
72
80
101
91
103
100
95
71
95
84
92
77
90
86
92
81
75
75
102
100
104
96
87
71
95
102
93
79
87
93
76
74
88
93
97
89
94
77
85
102
74
79
92
96
73
91
70
108
97
100
78
86
106
96
89
81
81
99
81
75
83
94
99
84
79
76
102
73
92
78
93
108
86
71
71
70
91
90
109
104
75
91
91
70
87
83
74
85
73
72
101
87
85
92
91
92
102
109
101
75
99
101
73
90
100
91
78
74
104
98
96
78
80
104
70
93
82
81
90
78
78
109
73
76
93
71
108
90
100
80
70
96
83
76
72
95
98
91
89
98
102
90
81
101
105
75
87
106
96
74
105
98
97
90
109
89
100
104
102
93
105
93
73
88
82
82
81
92
83
79
71
102
71
108
78
102
93
108
102
86
91
87
103
97
81
87
81
87
73
93
73
102
101
108
70
98
98
78
85
96
92
95
82
79
98
103
88
105
100
91
99
97
74
86
83
84
78
108
92
109
100
87
92
108
105
102
101
103
74
82
76
76
95
91
72
85
104
107
95
101
70
89
93
90
101
72
87
83
96
73
95
76
102
95
88
80
100
89
101
94
75
85
101
103
99
83
74
103
80
72
82
82
108
84
94
89
101
94
89
77
88
94
82
84
102
83
86
89
78
79
79
104
92
87
74
74
104
103
80
94
82
86
75
73
77
94
108
72
73
86
98
107
109
107
109
92
100
77
99
72
104
86
99
101
101
80
105
101
71
103
98
89
70
93
72
90
73
93
72
100
89
90
97
101
104
105
80
100
105
75
98
77
89
88
73
76
102
89
107
87
71
108
87
81
85
93
106
85
105
107
73
104
78
73
72
90
95
86
106
101
100
95
82
71
73
83
105
85
80
80
72
81
81
92
97
78
78
78
105
104
108
78
81
97
95
90
93
90
84
99
84
103
77
72
82
86
89
105
106
89
98
102
80
74
91
81
78
79
90
97
109
78
74
104
94
82
92
79
81
102
87
73
78
81
109
102
99
92
80
81
102
80
93
91
98
75
79
73
95
108
79
84
77
109
83
96
81
81
85
71
108
78
94
70
72
108
107
104
101
78
102
106
107
81
95
80
96
75
101
70
76
86
79
104
91
77
104
102
90
70
91
98
102
97
75
84
106
96
71
80
96
79
76
70
74
77
90
91
88
107
75
70
76
109
82
94
93
71
73
106
73
75
77
80
95
80
86
98
99
100
89
101
83
77
72
84
98
92
102
78
107
83
99
91
89
88
70
100
100
83
84
99
78
77
100
105
78
74
101
71
93
104
74
71
71
80
109
76
85
100
81
103
89
74
84
84
73
80
101
92
79
88
107
108
104
78
103
109
84
88
82
77
102
85
105
87
109
81
72
94
97
88
109
88
105
105
95
97
93
77
71
84
80
103
85
98
72
102
102
76
73
97
100
99
71
83
71
75
75
96
83
90
103
94
82
79
85
71
107
105
109
102
106
94
93
95
90
78
95
109
81
78
109
70
84
97
80
89
74
100
81
76
85
73
79
103
94
86
107
85
88
70
104
91
104
81
104
97
83
88
90
98
105
108
104
87
89
103
104
104
101
106
97
93
78
97
97
106
99
100
84
106
103
103
88
101
80
77
103
77
103
88
92
85
77
84
81
75
107
101
81
80
101
94
81
101
95
83
109
80
96
105
104
79
94
84
99
76
107
90
82
74
71
71
100
71
109
71
82
75
82
107
81
72
84
94
99
97
103
104
106
104
86
77
79
99
103
70
74
87
104
80
99
80
97
83
97
72
74
86
73
102
71
97
81
88
105
76
77
100
86
70
81
91
84
80
80
79
98
83
101
71
79
87
104
89
87
77
76
71
75
96
95
93
73
103
89
97
92
70
88
92
101
86
106
80
82
82
109
107
94
92
100
75
80
103
75
90
105
94
109
109
80
108
75
71
73
102
72
83
94
70
83
105
99
81
93
104
104
83
108
78
83
97
70
100
100
80
82
94
93
101
108
73
74
92
95
93
101
100
104
93
94
98
88
100
104
86
106
107
71
83
86
97
89
75
109
106
98
74
102
106
101
89
96
100
104
102
81
78
79
74
71
80
108
92
109
109
101
76
96
88
78
98
90
83
73
72
79
84
99
93
78
105
97
100
106
101
82
100
106
75
79
97
94
75
72
91
75
91
89
77
72
104
101
89
90
77
98
106
77
106
85
106
100
89
103
77
107
109
73
101
90
108
99
88
93
95
91
79
74
103
100
96
82
90
85
102
100
94
92
87
95
85
75
79
78
82
97
76
97
92
92
73
73
72
101
102
107
75
84
72
82
104
71
109
86
103
77
75
81
87
88
89
84
101
98
86
101
109
78
96
92
97
83
80
87
104
93
93
90
80
76
78
82
71
97
100
92
94
109
94
81
96
85
71
94
73
108
109
105
74
95
91
78
76
94
106
75
75
73
76
80
78
106
105
108
108
98
77
92
96
78
73
92
72
91
80
107
82
71
102
106
80
83
84
109
87
94
79
102
90
91
82
78
76
86
81
102
102
98
96
93
93
95
82
98
103
74
70
84
104
86
103
72
96
90
76
91
103
106
71
88
77
82
97
100
83
104
102
73
85
82
101
88
92
104
107
82
71
99
72
105
98
94
98
98
98
84
81
70
103
99
91
81
91
79
104
74
74
73
88
93
90
81
108
77
77
98
99
94
101
85
102
105
96
81
86
73
92
90
92
71
109
79
81
105
76
73
95
104
106
80
96
97
101
104
85
84
106
108
98
92
100
73
96
78
107
103
99
85
89
91
85
109
105
80
98
79
97
80
86
101
74
93
92
71
109
85
73
76
96
86
79
76
106
102
78
102
83
70
88
102
95
87
108
106
92
86
103
92
98
100
109
90
91
73
93
93
91
74
70
87
106
73
84
72
71
76
80
82
79
104
79
84
71
79
74
92
86
103
86
105
78
94
84
103
108
75
100
84
78
79
101
99
102
99
104
87
92
75
94
74
96
92
95
94
88
98
109
108
86
101
89
83
102
77
100
84
79
108
103
76
79
74
71
73
76
95
91
104
89
76
97
78
85
83
73
109
74
96
79
82
109
96
94
77
105
97
75
89
73
106
96
100
102
101
82
105
85
98
70
84
77
86
87
109
87
107
83
81
95
98
94
102
98
78
87
94
80
83
82
77
92
79
102
70
90
96
96
74
105
70
87
99
73
98
97
105
94
70
94
106
93
87
84
103
78
73
107
77
83
98
106
105
104
106
88
96
92
81
80
78
103
106
79
93
100
70
96
104
89
76
90
80
108
79
104
87
88
96
89
75
73
79
81
101
108
92
72
91
99
106
81
75
104
86
86
97
79
84
90
107
72
108
71
107
85
83
74
100
73
76
75
88
74
104
73
105
89
92
101
71
88
74
77
74
99
99
109
73
105
108
81
106
92
86
102
82
103
98
81
103
89
76
96
76
104
103
80
77
87
74
87
76
98
90
107
107
105
96
98
99
75
92
76
76
93
106
93
70
84
108
71
96
79
88
104
102
104
83
104
80
101
102
102
81
106
81
99
78
73
77
79
72
100
70
74
107
90
89
78
71
81
89
75
86
76
105
75
96
93
101
104
100
91
89
90
88
87
95
109
82
92
91
106
104
102
105
77
101
76
82
87
109
88
90
109
75
95
101
73
80
108
84
103
95
98
74
83
95
106
100
73
97
105
97
85
90
94
102
100
107
83
109
74
71
89
94
77
93
105
86
98
95
104
96
87
90
74
74
73
103
107
97
103
105
82
71
87
104
94
76
103
101
86
90
78
95
100
78
92
93
97
100
71
77
79
74
71
93
82
96
77
88
81
77
79
83
84
102
71
104
102
75
102
98
93
82
75
99
96
73
80
91
72
78
86
74
105
73
103
71
83
92
101
105
93
81
98
86
89
109
79
99
70
75
81
100
97
77
80
108
101
95
82
103
85
84
72
101
80
109
103
82
93
86
90
100
102
75
70
84
97
76
102
73
100
77
72
81
74
81
71
82
108
96
82
96
97
70
70
79
81
70
87
84
94
103
77
79
101
94
92
91
91
75
108
74
91
72
107
82
95
104
87
100
101
101
97
87
76
77
86
96
86
109
104
94
73
102
76
99
73
87
93
85
104
91
89
93
81
101
74
79
97
81
88
92
87
109
77
84
93
72
106
80
71
89
72
72
76
107
105
72
83
80
71
72
104
91
77
83
79
75
77
72
103
101
106
72
83
104
96
103
85
79
80
103
100
98
72
105
72
103
106
109
74
96
76
101
82
100
80
76
92
90
101
100
82
98
93
105
80
87
96
96
107
75
98
101
100
89
104
107
100
105
105
108
88
95
82
91
86
109
98
72
96
106
96
101
98
90
98
79
103
89
95
103
72
99
103
105
79
101
73
100
89
97
101
83
82
77
83
108
94
102
76
95
109
76
104
97
102
93
103
82
95
86
108
91
100
87
94
76
94
103
105
101
70
79
93
91
106
107
94
102
71
95
84
89
88
95
91
105
70
98
109
105
97
95
95
93
94
71
81
102
105
109
74
86
76
100
99
84
72
73
91
82
84
105
91
85
84
107
107
109
91
73
77
101
101
106
87
93
94
92
87
79
71
105
82
87
106
88
94
78
75
109
106
96
106
107
74
76
87
97
94
84
77
90
85
79
74
106
102
75
77
93
72
70
73
82
83
71
73
73
94
72
92
105
82
96
84
85
79
86
105
104
94
88
107
70
87
101
96
108
99
103
75
75
84
85
78
81
76
95
97
81
107
84
99
92
109
89
96
72
100
91
83
88
74
87
70
100
89
87
105
82
70
104
71
77
75
98
95
109
77
87
73
71
85
104
71
79
75
108
78
75
95
75
109
73
98
74
86
100
77
71
98
91
103
71
106
91
77
86
99
78
93
71
90
91
101
101
72
104
106
82
71
102
82
109
70
76
93
73
98
71
106
83
102
88
102
92
83
93
75
89
107
77
70
95
75
94
105
107
103
98
99
80
83
90
84
82
79
88
101
91
106
75
87
108
99
103
92
103
75
84
75
90
103
80
87
95
93
87
82
89
100
90
102
97
81
109
85
98
95
86
81
106
71
75
70
106
73
74
71
88
90
95
102
83
102
82
80
102
87
71
72
89
70
74
83
84
90
82
77
93
79
93
105
108
81
84
78
85
81
97
72
86
87
70
109
90
105
104
74
109
74
92
100
89
94
97
107
88
109
86
107
91
95
109
70
82
87
80
87
93
83
74
72
83
106
106
94
104
95
84
107
100
85
88
76
98
76
71
92
86
91
75
97
99
86
78
86
108
82
78
97
105
70
80
93
85
84
74
99
101
105
101
84
99
81
75
74
108
95
109
96
70
108
80
103
95
76
73
106
82
97
95
100
107
91
80
105
93
85
86
98
73
70
107
101
98
94
83
93
103
87
82
109
80
95
94
75
93
107
93
74
107
93
81
72
73
97
91
106
90
93
79
85
75
103
71
87
80
75
74
108
90
93
94
85
92
84
83
70
94
80
82
95
81
70
95
93
76
97
82
98
78
90
92
99
93
91
96
96
94
81
95
97
86
81
74
79
97
100
73
96
81
93
97
95
74
75
78
76
83
106
93
72
103
79
93
107
101
91
86
81
92
79
75
107
83
74
85
74
81
103
80
81
96
90
89
92
103
84
104
83
88
93
74
91
86
82
91
79
84
71
82
83
90
70
93
106
81
97
103
80
106
76
103
90
73
95
98
108
72
98
84
99
97
74
83
93
75
107
101
86
90
94
83
85
72
78
93
94
88
101
72
80
85
84
78
89
94
107
93
73
108
109
74
93
87
80
87
101
78
75
99
72
102
105
105
102
86
78
84
95
104
71
89
90
105
70
101
88
77
94
89
90
77
84
83
79
82
87
71
107
79
82
93
101
98
79
85
80
75
94
104
101
72
102
105
70
72
99
101
77
86
97
78
94
105
88
70
107
90
89
74
79
93
79
108
101
84
97
94
98
88
79
76
88
81
91
73
92
88
91
77
74
99
108
93
71
97
89
99
72
79
107
88
81
105
107
79
104
77
103
92
84
93
97
85
72
91
70
88
100
90
109
77
102
98
102
101
108
101
94
107
101
104
80
97
81
92
109
79
87
85
104
96
70
82
99
77
93
70
102
70
94
94
90
109
104
109
88
102
77
76
71
85
92
94
102
70
80
107
102
82
104
75
92
104
88
86
86
107
79
90
92
99
90
76
97
70
106
106
105
88
74
96
101
73
100
105
77
78
108
89
94
106
92
105
84
87
82
83
105
95
95
78
95
80
97
84
83
95
91
106
74
84
107
103
72
87
101
89
86
81
78
93
76
87
92
85
80
90
108
79
109
90
99
91
96
100
105
101
71
81
83
92
75
89
96
90
95
96
95
70
105
80
87
70
73
71
70
80
95
99
102
83
82
99
109
105
102
79
92
88
102
75
98
74
99
72
97
89
75
99
82
79
93
98
85
109
100
100
76
82
98
81
96
95
103
106
91
104
74
90
104
109
95
101
104
98
90
95
79
108
99
81
94
93
83
72
98
106
101
86
84
107
80
84
106
90
77
96
103
96
76
100
103
84
91
79
101
77
89
89
80
106
72
97
75
104
98
104
76
85
102
75
88
98
90
77
109
102
99
76
71
88
107
93
103
101
98
90
97
83
80
99
109
93
90
107
81
72
75
100
85
93
77
93
79
81
96
83
103
97
82
86
101
89
79
86
98
87
83
101
101
100
70
87
79
107
96
103
97
85
93
83
76
100
74
107
96
70
73
70
98
76
89
79
72
76
82
78
71
91
95
89
79
87
100
92
100
77
90
78
81
94
105
94
72
88
78
94
101
82
101
95
76
79
105
93
88
94
73
109
70
73
85
76
104
102
98
106
94
107
105
71
82
101
103
108
91
90
97
109
85
101
94
109
71
98
89
75
77
74
71
76
94
73
102
80
89
103
71
81
100
76
85
74
85
104
102
77
76
89
90
96
88
94
105
96
97
100
82
78
103
87
82
105
73
99
97
77
72
99
83
82
101
74
85
96
80
88
87
90
107
103
97
72
70
79
89
105
100
70
92
88
86
76
90
79
70
79
103
105
87
90
95
85
75
83
106
88
93
101
81
89
96
107
96
75
71
78
100
103
87
96
78
80
98
74
104
75
85
76
104
86
92
83
107
96
93
104
76
74
98
86
93
85
83
92
108
83
75
92
74
74
90
74
89
95
99
81
84
95
86
91
91
76
73
72
86
101
75
89
82
79
73
77
98
107
100
99
96
88
75
97
100
75
109
92
108
75
81
105
85
106
98
92
80
89
85
71
73
99
101
109
100
78
81
96
73
85
92
72
98
73
77
100
89
104
104
86
104
78
93
98
107
108
79
103
105
71
104
105
99
91
83
70
83
95
98
72
89
98
97
74
82
86
98
71
107
100
83
103
100
72
109
107
104
86
78
83
99
109
98
70
85
76
109
82
79
90
108
93
91
90
100
107
89
103
99
104
95
108
78
72
89
87
106
77
73
79
88
98
105
84
75
102
102
78
107
98
79
80
95
70
71
86
94
105
71
101
78
104
88
74
89
73
86
109
85
96
97
103
99
74
97
91
91
88
87
89
101
94
84
88
83
109
100
77
85
77
99
71
77
103
75
101
84
90
100
74
108
108
70
95
89
108
107
74
74
93
72
102
99
70
77
83
72
80
107
103
91
79
102
85
102
85
75
77
96
107
75
92
97
73
104
78
88
72
72
73
80
86
80
84
78
73
99
96
78
80
83
109
102
87
87
80
107
97
70
99
99
107
98
77
75
102
80
92
90
85
88
73
77
80
80
83
100
97
70
71
101
85
85
102
96
84
87
103
99
101
84
86
86
107
90
85
90
93
78
106
77
77
82
97
89
78
95
84
87
84
85
96
85
79
72
74
79
104
85
106
93
103
70
78
106
91
98
90
77
100
89
87
75
86
70
73
108
95
70
78
109
91
104
108
71
93
101
74
109
89
90
73
75
88
108
76
77
83
99
78
86
92
98
107
83
89
102
90
103
98
108
73
104
94
72
74
105
80
76
101
89
96
94
101
92
71
109
103
89
99
101
80
100
100
88
103
77
70
96
75
96
104
74
102
78
108
109
106
92
81
92
83
99
85
104
101
88
102
82
71
101
107
87
105
79
102
92
90
81
93
100
93
73
97
104
76
89
79
86
93
73
85
102
100
91
87
73
106
87
83
106
77
72
98
81
72
87
104
78
108
71
101
75
78
88
101
85
91
96
101
76
106
103
95
89
97
81
80
80
91
97
72
78
72
108
73
108
93
108
107
109
93
95
104
76
80
87
100
82
108
91
103
95
89
77
94
78
73
77
86
70
80
94
99
85
88
80
88
72
72
70
71
89
78
73
92
80
98
109
109
94
94
105
93
94
99
85
81
76
85
87
74
82
81
79
84
104
101
108
87
100
98
102
76
91
94
77
106
71
93
105
89
90
89
84
94
81
103
102
81
84
75
87
76
77
103
90
93
87
80
96
101
105
82
74
82
107
70
91
98
72
72
85
72
77
85
83
108
81
77
104
86
101
101
86
76
102
105
72
77
89
104
76
84
78
88
75
96
88
100
108
107
100
99
72
98
80
75
70
109
70
85
98
80
96
91
98
89
94
95
98
99
103
78
96
98
84
93
90
95
107
74
94
78
82
103
74
87
106
82
94
98
87
72
102
95
85
84
92
84
93
106
102
96
72
81
100
88
75
96
85
95
107
72
106
100
83
98
83
103
84
91
105
91
109
93
99
106
107
96
93
77
90
105
94
76
93
89
72
94
106
97
94
72
73
84
97
107
103
79
91
73
102
100
96
80
103
109
89
107
83
71
99
76
94
76
80
87
101
86
77
75
82
73
83
82
109
88
73
92
109
99
82
70
79
71
107
80
94
87
97
80
100
82
88
81
88
84
102
72
73
97
81
89
98
71
78
92
102
100
100
78
101
96
72
78
80
108
91
93
106
107
105
73
71
87
83
76
73
80
71
88
96
81
93
78
98
83
102
72
85
94
89
75
96
109
102
81
80
97
86
77
74
97
82
80
107
97
91
84
104
80
98
88
100
86
74
99
76
70
83
76
105
72
88
73
94
82
106
86
72
80
86
105
78
106
76
76
81
93
82
90
78
85
81
78
90
89
87
104
94
71
92
105
75
81
80
81
94
80
77
71
71
97
89
73
71
101
88
76
105
93
87
86
91
85
107
82
108
73
99
101
72
70
107
94
98
82
99
107
97
70
88
98
78
74
97
84
85
90
76
89
106
104
106
96
86
99
72
70
106
102
72
73
83
75
103
77
87
106
72
79
95
76
81
80
109
109
101
92
87
90
106
75
85
87
75
88
96
100
96
104
99
73
77
101
103
87
80
76
89
97
71
100
87
91
82
81
107
106
100
71
78
92
80
98
97
97
74
85
96
90
99
105
96
105
105
97
83
73
87
77
105
87
88
99
89
90
90
76
88
103
104
78
98
80
88
109
71
102
95
72
103
84
98
98
105
102
94
101
87
106
106
102
79
85
91
77
70
73
88
99
86
102
88
73
98
71
73
78
70
70
82
97
100
75
91
88
77
96
107
105
85
96
82
79
90
74
72
104
102
97
94
76
82
70
84
79
78
104
106
83
95
82
99
104
96
93
87
94
92
72
104
93
91
70
79
82
83
71
96
100
104
73
91
80
103
88
108
98
103
83
109
109
74
89
83
109
83
92
94
106
71
85
101
96
81
97
74
85
89
74
105
99
101
89
79
71
83
74
80
72
77
88
73
108
94
84
80
79
84
104
81
70
70
72
90
107
96
99
81
106
77
78
84
91
92
97
98
80
94
103
96
106
71
104
102
95
83
81
91
72
107
87
86
104
96
88
95
70
79
99
86
71
86
96
74
109
94
90
100
85
97
108
108
72
70
74
92
72
106
82
77
94
97
91
95
89
94
85
109
89
95
105
87
84
85
106
81
97
82
107
85
92
100
91
109
74
105
71
99
85
91
95
108
82
94
100
98
104
71
103
74
76
104
78
86
83
81
91
99
103
89
77
109
70
86
91
81
95
105
102
91
103
101
78
82
75
73
88
73
87
100
79
71
78
73
89
89
99
92
99
87
95
91
79
108
75
96
92
97
81
102
71
101
70
89
97
102
83
75
73
83
108
85
108
109
96
83
82
82
91
99
90
92
104
79
89
90
83
73
79
70
86
71
98
87
74
87
71
103
80
108
70
80
96
105
94
74
98
93
97
80
84
72
81
76
84
94
107
104
94
82
107
102
95
100
72
74
82
78
73
79
99
75
72
71
75
96
70
80
108
88
87
75
102
91
80
70
97
87
102
108
83
74
104
107
84
78
104
79
80
70
102
77
76
104
94
90
93
76
83
101
70
76
75
107
97
99
101
90
72
107
97
79
91
74
87
76
76
101
98
84
74
88
102
81
83
76
96
80
94
74
77
91
104
80
86
96
92
81
82
88
88
105
100
98
86
74
103
80
81
80
87
91
89
84
98
91
80
87
102
73
93
109
93
97
89
76
71
106
73
93
86
72
83
98
88
99
76
81
96
73
73
72
70
74
84
81
80
75
82
80
97
77
107
91
98
94
98
97
102
105
102
86
90
98
103
102
76
92
93
87
107
86
77
101
79
91
93
72
91
97
107
104
80
109
96
100
84
84
75
95
75
77
84
100
76
70
101
92
104
92
104
102
102
103
93
86
91
108
98
96
104
109
89
70
92
79
76
89
99
98
108
93
87
102
106
104
79
76
85
85
93
83
70
99
84
84
104
99
97
95
109
74
97
95
92
107
76
76
103
90
80
88
92
100
81
101
90
82
104
92
71
96
82
72
79
81
82
109
72
109
89
75
92
86
93
72
86
87
80
84
96
86
90
86
77
107
97
72
74
73
89
70
83
94
95
77
75
78
82
90
83
108
92
104
87
91
100
70
86
73
80
88
73
77
98
84
109
91
104
80
92
70
89
107
80
86
108
89
98
90
91
83
74
71
72
102
80
81
71
82
91
105
93
70
72
73
87
83
109
92
101
102
102
81
96
81
79
89
98
76
107
86
101
104
85
79
104
101
94
97
109
77
102
89
102
72
94
87
81
73
93
93
81
80
97
73
103
90
96
86
88
86
88
74
105
97
84
83
105
109
104
83
78
101
95
86
83
76
74
74
96
95
100
103
106
104
108
102
93
76
91
86
103
87
87
101
70
95
70
84
77
94
71
94
91
84
70
75
101
108
86
80
85
93
92
97
106
93
89
89
106
81
80
97
77
72
81
71
85
72
93
73
107
88
75
91
99
105
82
94
106
79
88
105
79
108
75
107
80
86
78
106
95
88
102
86
85
103
109
106
108
86
71
76
107
92
75
90
78
75
93
79
77
109
89
94
86
106
90
79
93
109
84
88
99
104
86
70
76
101
85
92
109
87
85
82
94
88
73
90
93
92
109
79
91
85
81
79
91
81
97
91
72
105
75
108
70
83
80
96
76
74
103
77
104
101
87
85
91
109
107
91
79
99
91
93
102
73
104
107
109
87
88
87
73
98
107
101
104
88
84
77
76
71
76
102
83
94
84
77
90
108
90
94
76
72
87
75
93
72
78
91
100
78
102
76
80
96
91
76
98
87
98
76
92
98
76
78
96
84
70
105
108
75
94
91
92
99
88
78
73
90
106
86
97
109
92
90
86
107
93
96
91
80
82
78
85
109
79
79
86
70
75
98
96
76
87
81
96
92
72
104
73
79
109
93
75
100
106
104
90
83
87
90
108
83
75
83
86
71
101
70
86
76
100
88
94
86
77
81
79
91
93
105
93
72
71
95
98
98
80
86
93
104
106
106
92
80
78
74
87
79
101
109
79
109
89
105
87
72
79
98
98
72
88
89
93
83
80
101
102
97
102
86
86
75
86
103
75
95
91
99
80
71
89
100
89
99
81
72
106
76
70
85
80
75
81
71
90
97
72
95
96
88
108
85
85
98
74
98
97
81
98
79
82
70
87
75
77
101
70
99
79
97
82
90
81
100
79
83
75
82
86
108
79
95
97
70
98
94
72
106
71
84
98
70
101
76
103
80
97
99
70
83
87
79
107
88
101
84
100
86
104
87
91
77
108
103
94
103
78
88
78
72
76
105
93
72
95
97
91
102
95
86
82
87
80
102
81
71
101
105
70
88
74
94
88
81
86
102
83
88
80
78
77
91
80
97
105
107
90
77
90
83
87
100
82
72
77
94
75
81
104
85
94
72
96
81
98
81
85
77
96
106
80
90
109
108
100
74
87
74
101
96
83
95
104
102
70
109
75
103
74
107
78
78
84
95
90
86
100
108
97
100
77
101
87
74
93
91
87
102
71
107
81
90
79
84
90
100
93
71
108
105
103
72
80
94
104
100
105
71
85
83
99
84
89
88
84
104
95
95
73
99
80
86
108
75
94
87
85
95
105
93
95
100
95
77
85
91
73
88
108
75
108
70
74
91
101
100
79
107
105
88
75
75
100
109
88
107
96
107
74
77
80
88
76
72
109
109
77
87
73
106
99
74
106
100
78
106
73
72
96
98
76
104
92
77
81
93
101
99
92
101
88
80
83
104
92
94
96
86
72
81
78
99
87
99
71
85
80
90
93
93
72
79
72
76
76
89
80
81
73
97
92
72
87
78
90
92
94
100
103
88
103
89
89
83
102
104
83
106
103
74
105
91
87
81
85
95
99
86
97
102
95
86
102
90
80
81
76
93
106
76
75
108
106
79
106
73
91
88
86
83
99
73
85
97
107
104
98
95
74
70
92
95
76
99
83
107
90
104
107
90
89
100
92
82
71
99
96
109
83
107
87
71
85
105
80
95
94
100
89
84
97
80
96
106
97
71
91
76
93
106
109
76
82
102
98
81
72
109
93
97
72
97
79
103
92
97
83
94
87
109
88
87
102
84
95
95
103
97
109
85
89
81
107
106
109
72
108
98
100
101
87
106
81
107
86
91
72
89
86
102
86
84
80
96
83
91
87
95
94
91
83
93
79
100
101
109
99
84
92
100
99
75
95
99
86
103
108
82
81
89
73
70
108
95
81
86
103
83
73
74
92
108
107
85
79
75
106
109
107
81
88
72
86
71
101
74
104
70
89
100
96
105
91
103
80
103
74
97
90
93
93
103
83
91
86
84
71
78
92
105
109
71
89
102
84
81
97
79
70
88
100
82
92
105
70
96
91
76
101
91
101
73
82
79
74
74
76
99
81
109
73
74
90
78
71
77
94
106
82
83
105
102
86
76
78
81
104
98
91
71
80
89
71
96
90
89
98
80
93
90
108
72
90
87
97
102
73
101
74
80
89
102
71
94
79
89
84
105
74
101
106
70
100
78
80
80
107
78
106
77
72
96
80
95
71
81
98
95
73
96
98
101
71
71
82
106
95
98
89
97
108
88
104
99
89
80
73
83
78
86
98
73
102
93
102
75
104
71
101
105
93
83
86
95
89
95
98
104
78
86
74
89
85
75
91
109
102
87
73
79
75
72
98
84
87
74
101
98
76
74
99
92
78
81
84
72
98
109
77
90
100
78
105
74
95
88
85
75
77
100
80
86
89
92
75
87
75
79
86
85
101
73
83
104
84
87
94
102
89
98
85
103
88
98
101
82
96
100
77
103
100
103
95
102
98
107
108
80
106
107
87
109
105
101
93
93
103
80
76
99
77
109
97
87
75
89
70
91
89
106
108
80
108
79
109
89
100
93
70
96
84
71
82
72
81
94
98
76
70
98
92
94
95
95
74
98
109
108
101
83
82
96
97
94
93
93
74
78
104
73
95
96
88
75
95
72
77
99
81
91
75
101
88
103
87
88
87
71
94
90
73
84
99
102
92
97
71
88
87
93
70
96
105
102
79
70
108
100
92
101
75
99
92
98
71
102
109
87
80
96
77
91
82
76
107
85
86
89
90
105
91
78
78
82
108
84
73
88
83
99
72
107
102
77
74
73
74
83
73
109
109
92
92
73
105
85
99
93
109
78
77
104
78
81
95
85
78
104
70
98
99
95
103
86
108
96
92
97
104
102
106
81
79
100
89
90
100
102
108
85
84
96
105
76
72
70
74
76
105
84
78
84
101
103
98
77
100
91
100
83
81
103
73
100
101
102
93
102
86
103
83
109
88
71
102
109
98
93
96
109
77
94
88
109
104
83
73
97
95
104
96
103
109
78
70
101
72
91
72
70
108
80
107
71
75
107
108
92
75
86
79
81
104
104
109
86
108
99
84
90
84
70
90
91
101
91
73
109
79
75
74
106
104
97
91
104
100
92
82
81
76
97
87
71
84
97
93
86
105
87
106
103
83
100
96
74
72
70
98
99
74
71
74
105
81
106
90
107
83
91
98
83
91
103
90
80
96
73
80
102
72
87
84
81
85
100
74
74
70
72
80
81
73
109
73
107
72
75
105
102
105
102
82
83
82
70
78
91
109
80
70
102
96
75
98
95
89
101
82
84
96
87
109
100
93
86
71
90
75
100
72
89
109
103
99
72
97
95
108
105
106
70
102
85
106
83
92
98
95
79
78
103
93
92
71
102
93
107
92
107
101
77
71
85
95
108
109
99
78
107
108
73
87
107
74
91
77
71
82
81
79
90
96
83
109
96
103
71
97
75
72
97
99
103
78
106
80
79
104
92
91
97
102
92
108
103
80
73
105
88
100
85
74
95
78
74
73
90
92
86
90
93
82
90
87
104
76
95
79
79
83
74
96
88
74
74
82
106
97
71
86
92
89
109
71
92
89
82
88
89
88
92
70
91
108
70
72
97
90
109
76
83
103
86
91
74
95
82
104
84
77
108
77
77
106
74
71
82
104
107
98
79
97
89
72
108
108
102
86
75
97
99
88
101
84
95
94
78
71
109
94
94
91
81
101
73
87
84
80
89
101
94
72
91
72
100
77
80
83
106
90
84
78
98
89
92
90
102
88
91
96
74
109
78
84
70
94
98
104
98
84
90
102
98
89
85
109
93
71
70
73
89
83
94
92
105
74
96
73
74
106
107
91
98
76
78
89
89
97
78
84
109
107
107
76
105
85
92
88
109
77
80
101
76
81
96
82
105
96
73
81
76
107
101
95
108
99
76
88
109
85
71
93
84
75
94
87
80
92
106
89
76
96
109
105
82
100
97
87
82
77
79
81
75
99
81
70
81
107
82
97
72
82
76
97
88
102
73
103
81
95
102
71
73
95
78
99
76
93
75
100
99
88
90
82
88
98
71
102
89
83
86
78
75
96
93
105
80
92
102
100
76
101
97
108
101
98
97
92
81
108
101
81
109
106
90
76
107
89
87
96
91
99
74
77
109
72
97
109
85
99
100
85
81
79
89
86
103
81
95
92
98
95
103
94
71
105
79
71
83
79
106
100
87
108
101
72
79
81
90
101
95
93
90
107
79
84
95
77
96
85
72
106
79
88
105
98
90
71
98
99
81
101
94
98
79
85
79
93
96
92
71
96
77
97
90
70
86
76
99
83
80
77
93
72
79
102
99
103
93
76
97
87
100
81
100
98
72
86
71
77
81
104
104
71
72
88
99
78
95
79
94
79
102
89
108
76
99
90
85
91
97
86
109
100
101
101
76
83
85
104
95
103
81
101
102
106
87
81
101
107
98
70
94
80
90
90
94
79
82
106
87
95
94
79
71
106
83
97
79
94
84
81
94
93
81
107
71
97
91
108
80
84
102
88
92
95
70
87
92
81
109
72
97
83
107
71
86
97
95
108
75
99
93
108
108
77
105
91
76
76
107
73
76
98
76
93
81
92
103
88
85
98
99
100
100
102
104
92
81
97
104
109
106
82
97
86
106
88
80
108
109
91
104
81
105
101
91
70
76
95
88
102
104
81
101
85
94
82
71
72
90
105
96
103
75
83
72
97
86
78
103
94
107
109
105
91
80
101
100
106
108
79
102
96
103
80
107
107
96
93
77
83
80
107
76
95
85
101
105
108
73
79
109
106
76
83
103
96
79
98
78
81
99
86
84
102
105
85
100
102
99
96
101
75
74
101
70
103
74
105
93
103
91
74
91
95
74
101
74
70
87
83
74
92
96
90
72
73
94
105
88
87
101
99
101
98
98
72
70
95
105
72
83
107
77
97
104
77
99
83
105
103
89
98
72
97
98
84
74
79
85
92
104
109
88
102
109
79
95
75
99
77
82
71
108
79
85
98
101
109
97
100
109
91
83
109
79
83
99
84
91
107
88
77
108
96
75
88
86
99
105
72
78
83
77
105
71
99
77
86
82
78
107
74
93
80
71
93
103
95
82
73
83
90
94
102
107
80
85
106
72
85
104
77
71
88
90
109
109

