lin105
105
1 63 71
2 94 71
3 142 370
4 173 1276
5 205 1213
6 213 69
7 244 69
8 276 630
9 283 732
10 362 69
11 394 69
12 449 370
13 480 1276
14 512 1213
15 528 157
16 583 630
17 591 732
18 638 654
19 638 496
20 638 314
21 638 142
22 669 142
23 677 315
24 677 496
25 677 654
26 709 654
27 709 496
28 709 315
29 701 142
30 764 220
31 811 189
32 843 173
33 858 370
34 890 1276
35 921 1213
36 992 630
37 1000 732
38 1197 1276
39 1228 1213
40 1276 205
41 1299 630
42 1307 732
43 1362 654
44 1362 496
45 1362 291
46 1425 654
47 1425 496
48 1425 291
49 1417 173
50 1488 291
51 1488 496
52 1488 654
53 1551 654
54 1551 496
55 1551 291
56 1614 291
57 1614 496
58 1614 654
59 1732 189
60 1811 1276
61 1843 1213
62 1913 630
63 1921 732
64 2087 370
65 2118 1276
66 2150 1213
67 2189 205
68 2220 189
69 2220 630
70 2228 732
71 2244 142
72 2276 315
73 2276 496
74 2276 654
75 2315 654
76 2315 496
77 2315 315
78 2331 142
79 2346 315
80 2346 496
81 2346 654
82 2362 142
83 2402 157
84 2402 220
85 2480 142
86 2496 370
87 2528 1276
88 2559 1213
89 2630 630
90 2638 732
91 2756 69
92 2787 69
93 2803 370
94 2835 1276
95 2866 1213
96 2906 69
97 2937 69
98 2937 630
99 2945 732
100 3016 1276
101 3055 69
102 3087 69
103 606 220
104 1165 370
105 1780 370
74
77
89
94
88
107
72
97
75
101
71
87
104
103
89
89
78
81
85
84
85
109
98
102
104
92
87
70
103
74
74
89
73
103
104
99
96
71
93
107
109
108
76
106
93
91
80
100
84
93
92
71
89
86
96
77
106
83
101
85
82
95
76
95
71
103
81
103
73
80
102
89
89
101
93
86
94
85
85
102
101
76
90
95
98
88
86
76
74
71
108
81
83
87
70
86
102
79
77
83
76
100
74
99
71
94
107
84
90
101
72
70
84
109
70
73
72
98
83
108
80
72
91
91
84
81
91
105
94
77
92
79
104
109
75
91
72
105
94
92
98
99
81
92
102
83
81
96
84
75
105
77
101
86
76
83
84
109
106
86
101
83
102
90
85
98
103
71
75
92
102
93
77
87
103
106
93
107
100
90
77
93
86
94
72
73
85
80
100
75
106
77
101
79
91
84
76
75
71
87
72
89
74
80
99
89
107
102
72
94
85
71
91
87
83
71
106
73
95
98
74
91
100
87
86
99
82
87
92
95
99
108
79
87
92
92
108
105
93
88
71
92
109
88
102
73
96
74
74
94
98
98
97
70
72
108
102
102
93
96
101
72
74
70
97
109
82
90
73
103
85
105
75
109
83
101
71
107
108
100
80
105
101
104
78
90
70
83
71
88
98
98
79
93
102
84
70
93
109
82
105
75
83
72
83
82
73
77
85
101
80
80
76
88
90
83
75
88
109
109
96
88
89
83
107
103
101
78
108
86
85
99
84
94
86
86
80
81
109
88
81
71
109
100
103
77
79
92
71
73
87
73
74
72
108
107
96
92
80
93
93
104
73
93
99
94
80
75
80
76
88
96
106
73
81
80
104
94
85
75
98
107
98
72
100
103
106
83
95
101
87
105
96
91
91
97
77
100
95
94
109
97
90
90
96
91
108
77
95
77
84
71
109
103
103
82
70
109
74
107
78
82
90
82
78
87
89
71
82
81
92
88
95
90
83
105
107
78
88
107
93
104
84
96
71
102
78
94
104
91
85
98
79
107
88
86
85
76
100
70
107
76
78
80
76
109
98
107
92
72
108
105
89
105
100
71
88
87
71
76
75
87
99
80
82
105
83
104
80
75
76
79
79
76
103
103
70
100
73
72
82
75
71
104
99
87
101
76
97
105
81
85
78
82
100
79
85
98
73
78
100
98
73
82
78
91
101
100
100
94
70
81
93
109
74
87
75
97
95
70
97
102
85
81
106
100
79
109
74
88
75
73
75
82
82
94
89
88
98
72
87
99
98
78
94
104
77
95
82
97
98
94
88
77
75
95
77
86
102
106
97
73
105
96
108
92
97
83
103
107
84
91
102
107
108
78
108
106
71
72
72
94
70
83
86
102
107
104
89
86
71
87
72
95
98
83
71
94
76
74
104
91
107
92
89
70
102
90
103
77
90
97
91
72
91
94
108
105
93
92
94
102
99
107
105
97
88
100
109
74
100
99
100
74
81
76
88
84
70
81
96
96
100
90
101
103
104
102
97
70
72
82
82
100
90
88
92
94
97
89
85
94
80
93
108
79
108
90
108
93
94
108
78
106
86
76
93
75
86
84
102
109
94
82
103
106
99
75
87
72
94
74
79
92
74
105
71
107
70
79
84
97
76
98
97
85
96
87
91
93
109
104
82
78
101
109
108
71
80
70
108
70
103
96
84
107
104
78
102
108
85
90
89
104
88
108
73
96
98
98
88
75
101
73
93
81
70
99
106
90
87
81
106
104
83
106
90
74
92
101
72
99
74
108
73
106
84
74
103
75
108
102
107
70
94
104
87
70
97
83
96
93
89
83
90
78
92
106
92
107
76
94
109
88
92
76
71
104
95
75
90
94
93
106
109
94
95
76
81
70
109
78
102
103
78
93
106
72
88
85
103
109
80
72
77
100
85
76
104
72
96
80
83
105
102
95
76
84
89
102
90
95
92
99
109
104
70
95
93
102
104
77
109
80
106
107
81
85
91
81
78
76
80
104
105
84
103
109
90
70
92
101
82
106
84
107
108
104
104
104
80
81
108
74
85
108
81
80
72
84
87
109
88
82
79
84
108
72
96
91
71
86
104
90
74
88
70
85
107
87
93
80
101
79
100
100
80
81
76
103
98
82
89
104
102
100
109
75
92
91
105
81
105
98
77
77
89
87
74
106
74
109
77
81
83
73
103
81
76
95
108
103
88
77
97
81
88
72
105
102
98
86
97
81
98
108
90
77
87
81
95
98
82
74
80
80
74
103
95
92
76
102
89
89
105
103
86
81
87
104
100
76
77
90
73
96
73
107
88
98
77
77
79
108
106
71
102
96
99
82
106
107
85
103
106
109
93
79
90
80
107
75
71
103
93
109
89
89
103
95
96
102
106
106
80
89
74
106
79
70
109
104
97
95
97
80
73
90
93
109
83
93
82
97
71
100
99
97
73
74
75
88
71
102
78
90
99
104
107
84
82
109
72
91
108
103
71
90
108
96
71
80
106
96
102
98
87
109
94
76
97
99
93
109
72
85
74
84
104
82
108
94
104
91
101
82
98
107
95
78
92
72
94
98
87
82
94
94
86
82
102
72
96
77
86
80
90
89
84
72
87
78
101
102
89
80
107
92
101
101
74
82
97
74
87
82
97
107
83
77
83
82
100
92
80
104
100
105
108
74
79
70
95
85
79
102
93
77
74
75
83
99
103
72
107
101
100
80
98
82
92
103
95
102
71
80
103
83
82
78
103
73
80
78
82
87
81
100
108
90
75
78
101
93
94
79
90
98
84
76
96
88
81
92
90
86
71
99
102
94
85
104
75
94
73
104
102
91
83
106
109
70
108
77
83
76
72
94
101
72
104
71
84
84
90
92
84
89
84
87
93
75
87
87
96
72
89
100
92
81
94
79
89
82
72
104
76
79
100
103
109
80
78
71
94
103
104
95
85
87
71
91
75
79
79
91
94
87
88
83
99
83
89
83
80
93
100
87
106
104
106
81
90
74
96
101
85
73
98
102
100
73
87
71
105
109
93
101
108
85
95
99
101
78
108
78
90
80
74
90
91
84
98
76
76
77
102
81
91
89
104
95
99
71
85
75
80
75
98
99
83
79
85
101
80
109
72
71
79
99
73
97
80
85
93
96
83
81
102
100
102
79
83
84
80
72
104
80
70
73
93
71
107
96
91
74
78
78
99
96
70
101
89
92
81
99
82
93
78
88
74
76
71
101
90
83
100
77
88
84
91
80
78
71
92
86
103
88
109
73
95
73
105
70
107
83
94
94
98
75
94
87
90
75
102
104
93
102
70
77
85
96
105
72
102
109
70
105
99
73
93
95
84
80
94
79
78
71
86
76
108
90
107
89
84
79
75
99
93
91
80
81
96
100
71
104
108
71
104
82
86
91
96
104
89
70
70
80
107
102
107
88
72
82
109
91
106
74
94
75
73
100
96
97
104
81
76
89
80
103
76
97
105
88
77
75
102
83
96
80
80
82
107
96
78
75
108
72
92
107
94
75
81
104
95
108
93
101
89
82
99
92
96
101
91
79
75
105
107
103
94
72
87
89
87
109
95
102
96
78
88
98
108
89
94
87
109
99
104
98
94
84
92
86
101
103
100
88
99
81
89
99
78
72
104
93
95
70
90
97
104
93
96
94
80
77
94
97
106
77
96
70
90
94
99
77
90
78
101
107
109
76
87
93
90
87
89
108
82
91
71
78
101
94
91
81
74
72
100
70
94
90
85
107
87
97
80
97
81
75
101
104
72
73
109
79
96
85
108
72
90
102
103
91
79
73
98
90
73
98
85
78
104
92
88
80
75
109
92
90
96
78
108
71
102
89
84
95
104
91
104
96
109
101
81
106
70
85
76
97
87
74
91
89
97
105
104
101
79
89
70
88
96
94
74
72
85
91
75
71
76
97
70
92
84
104
85
105
105
99
97
78
98
97
101
87
97
89
77
106
107
86
95
83
73
75
80
83
94
105
74
86
82
102
85
107
71
80
108
98
98
106
105
82
83
71
83
88
104
109
71
70
103
83
109
107
75
86
101
88
89
96
82
107
100
75
101
103
77
84
101
84
71
99
101
99
106
90
94
84
94
109
95
91
99
89
82
89
70
95
90
87
102
106
74
88
72
79
71
79
104
94
72
103
105
94
100
106
95
101
85
108
106
104
100
88
78
87
78
91
73
109
109
96
93
71
90
84
95
83
89
100
102
91
101
99
96
90
70
71
105
94
73
102
78
94
71
94
81
70
79
82
101
81
88
92
85
70
98
95
104
79
93
76
96
109
85
72
83
96
76
75
105
102
72
84
96
105
103
75
84
102
103
95
106
106
75
81
79
80
107
81
77
74
75
104
78
100
95
102
76
95
85
76
72
84
84
108
73
94
108
72
79
86
94
96
72
81
76
73
107
85
108
106
108
108
106
104
96
96
100
101
73
95
81
100
92
81
84
104
104
104
94
85
90
78
82
103
87
102
101
98
105
108
94
106
78
86
74
100
77
87
83
93
91
98
97
97
93
92
105
94
71
93
102
75
100
104
109
107
86
104
94
70
73
85
104
73
99
88
107
77
103
92
108
94
106
70
100
77
85
94
106
88
84
109
83
96
86
89
95
83
79
88
101
92
74
98
106
80
83
105
70
81
92
101
71
88
102
91
90
95
74
86
79
109
72
89
85
93
80
92
102
81
80
101
92
107
86
96
76
109
85
74
82
82
85
91
101
108
102
74
92
70
101
101
89
101
75
81
77
75
90
71
76
100
74
104
98
77
107
74
95
97
83
74
87
70
82
77
93
96
108
98
81
100
86
99
71
96
85
108
98
105
92
82
88
108
108
72
72
97
73
77
106
85
107
74
70
103
90
107
71
101
78
85
73
80
85
79
105
102
94
75
84
78
77
78
99
89
72
94
85
79
90
108
77
103
94
90
78
100
87
95
92
92
93
72
85
82
90
97
95
79
109
77
92
92
95
107
92
107
76
105
105
71
85
101
105
81
84
105
95
108
87
95
99
76
96
77
83
82
100
75
98
91
107
75
80
82
72
80
75
106
90
98
76
73
89
96
85
81
76
88
89
81
99
107
76
84
81
108
101
96
84
74
97
74
96
92
83
88
73
109
72
94
80
81
71
93
79
78
97
97
80
78
93
90
107
108
88
70
78
101
75
92
98
97
109
100
92
97
106
94
98
108
108
80
86
93
73
91
71
71
102
96
86
92
82
79
70
105
86
89
89
87
100
79
78
70
84
97
103
82
87
100
90
74
78
102
94
79
83
84
81
90
98
70
103
89
81
96
94
100
70
84
88
106
80
79
96
81
80
82
104
102
97
98
90
98
94
81
86
78
92
102
76
88
80
91
83
70
73
77
89
82
96
73
75
87
103
85
95
91
97
93
88
78
81
88
75
82
101
74
72
91
100
74
82
96
93
95
106
74
98
70
80
77
85
87
108
94
90
82
109
76
86
100
72
97
93
86
75
98
90
71
74
85
75
97
97
107
107
98
83
94
84
108
99
77
84
94
89
86
88
92
104
91
95
109
93
104
96
100
74
107
93
82
108
101
82
81
98
81
73
108
95
74
88
101
82
73
86
78
92
96
97
109
89
81
108
98
82
82
71
98
74
93
95
81
88
106
104
76
101
97
104
93
87
93
101
82
100
106
82
72
99
91
94
75
72
109
77
105
70
88
100
89
106
103
103
70
93
86
101
72
98
83
78
77
89
104
108
99
91
96
96
90
71
80
78
96
108
80
107
76
72
106
78
79
105
98
109
80
82
86
105
87
72
96
85
100
101
98
75
97
85
106
72
77
95
102
73
83
102
73
94
82
73
95
77
78
104
93
74
71
96
100
77
104
96
96
109
106
109
84
92
74
91
72
75
105
93
94
88
107
95
81
108
99
89
87
90
108
103
89
77
90
71
72
89
91
98
74
93
104
87
109
95
80
101
84
72
103
95
88
73
106
85
96
87
71
104
107
76
83
101
109
94
91
95
97
75
95
86
87
109
76
84
102
82
90
74
83
103
101
94
91
103
87
72
85
102
78
78
107
99
97
100
90
77
81
95
72
101
78
92
70
85
104
108
87
79
71
92
88
73
93
98
95
103
106
82
97
106
80
82
70
88
96
90
96
75
108
73
93
70
71
91
104
86
98
71
103
101
81
97
88
77
93
91
78
83
107
73
107
89
77
77
93
89
71
72
102
79
76
99
95
103
98
101
101
78
100
77
71
85
87
98
94
83
95
105
85
74
106
87
84
70
101
87
104
89
86
70
85
74
82
78
70
78
104
104
92
104
93
101
78
86
105
79
88
84
82
99
103
93
71
82
83
78
88
72
94
101
77
84
84
82
92
73
75
70
71
77
78
73
92
88
85
96
95
71
78
95
77
90
106
106
75
83
89
107
102
88
103
95
92
98
92
98
91
94
78
76
72
108
106
83
75
95
83
83
97
100
89
100
74
86
86
91
84
73
93
76
104
94
100
78
99
103
84
71
96
91
70
74
75
100
105
109
97
103
73
96
103
92
97
91
104
87
92
88
75
86
72
89
108
75
93
91
90
92
77
83
81
74
84
87
73
103
74
104
70
83
86
70
81
96
93
93
103
109
100
96
89
72
74
107
108
95
89
84
97
81
79
77
79
97
80
99
104
91
78
83
106
98
91
78
71
72
70
89
95
79
77
99
76
80
82
97
102
98
73
92
104
78
105
109
83
97
81
79
106
97
100
70
85
75
96
103
73
76
99
88
88
102
88
73
70
102
105
91
100
76
92
104
88
83
75
84
84
89
87
98
101
81
109
105
95
103
76
89
96
91
101
81
98
82
76
99
101
90
102
90
92
77
107
106
71
87
79
89
73
83
107
108
83
98
105
101
88
94
80
76
90
71
76
84
78
91
106
87
99
75
90
77
96
100
86
105
86
83
74
84
100
85
93
86
74
70
103
81
105
72
91
89
105
70
71
81
106
89
89
96
79
75
77
76
71
106
76
93
102
79
103
93
92
72
100
71
108
91
72
86
104
100
86
79
75
105
94
105
79
75
98
91
80
88
70
79
97
87
102
103
109
99
107
93
97
84
73
95
96
106
83
74
94
100
104
86
106
72
91
75
70
83
93
74
72
75
101
87
86
83
91
102
93
79
97
91
107
97
83
70
94
99
97
71
100
94
90
87
76
82
99
79
77
79
73
76
70
84
99
108
78
93
75
90
85
82
95
80
90
70
75
77
102
94
81
101
72
107
76
89
99
105
105
86
86
88
78
98
82
106
72
84
81
79
72
107
76
78
85
107
86
85
104
75
72
106
84
82
100
75
93
76
78
107
106
95
95
70
86
75
108
79
107
89
79
95
80
98
100
81
85
92
95
76
75
97
100
81
74
88
87
109
77
88
101
73
81
90
90
88
70
71
100
105
93
74
80
70
83
95
108
108
84
75
85
76
84
78
74
73
106
95
104
107
102
94
103
99
92
88
109
104
73
70
90
73
101
79
92
100
90
72
100
87
93
81
96
93
90
90
98
107
84
77
89
99
109
101
86
104
75
88
98
108
93
89
94
87
100
89
100
73
85
79
100
73
93
101
96
70
70
109
84
102
74
76
105
86
93
86
81
98
103
82
72
77
98
71
89
74
90
79
102
76
91
75
92
76
87
88
70
105
71
96
97
84
105
107
104
108
92
88
80
103
88
87
71
99
89
97
81
100
86
89
75
78
108
85
100
94
89
72
96
100
86
82
103
99
76
83
94
76
106
99
76
80
93
109
71
93
90
93
79
75
96
72
92
87
106
107
92
104
107
87
72
104
90
99
87
85
81
83
107
72
104
87
75
109
79
71
72
109
100
77
76
72
97
91
71
103
106
87
100
74
70
101
84
93
76
92
74
96
96
99
71
86
86
109
102
86
101
74
98
73
72
105
102
91
73
98
102
102
87
73
109
83
74
104
70
82
108
84
71
84
106
107
98
103
107
108
101
90
104
104
101
98
93
87
95
108
79
70
104
99
71
96
85
93
102
106
77
81
105
75
109
75
103
92
108
91
104
84
97
83
104
72
97
80
84
73
86
75
76
94
108
88
90
84
70
70
91
98
88
104
99
106
94
76
94
85
85
74
84
70
104
103
84
90
103
83
108
70
74
103
88
82
108
75
89
109
78
87
80
73
105
72
100
88
81
70
103
78
70
76
96
89
76
79
84
71
77
82
78
95
109
81
74
107
79
93
100
84
87
72
94
94
71
81
73
93
85
90
108
80
101
88
99
109
107
83
98
94
76
94
82
91
70
89
74
80
109
70
90
96
95
104
84
105
74
99
101
98
100
80
83
74
83
95
102
83
71
106
107
79
77
96
71
98
109
103
81
105
102
101
100
105
72
97
99
74
98
85
78
93
101
87
100
77
97
81
97
90
71
78
90
99
78
109
86
85
90
107
79
70
90
84
89
71
89
81
99
98
103
89
108
97
72
105
104
87
93
86
75
98
82
77
76
81
105
96
70
90
77
76
107
96
105
73
82
91
97
97
91
104
81
109
88
107
85
108
78
74
81
102
76
76
90
80
92
73
85
80
104
76
86
107
102
94
99
77
70
101
74
97
76
101
72
74
90
93
76
81
79
109
108
104
109
95
94
87
88
76
73
108
91
96
77
104
79
105
104
72
86
83
83
81
77
104
108
96
81
102
102
72
91
73
94
85
70
99
78
89
96
105
103
109
80
88
90
83
71
103
89
105
74
79
76
105
71
97
78
94
77
94
89
105
81
101
70
77
87
88
90
88
93
96
70
83
78
83
94
92
86
82
100
98
89
96
85
80
81
88
76
78
96
94
86
100
98
81
102
96
86
87
106
90
103
74
70
94
86
97
103
74
91
106
106
105
76
71
78
87
84
70
88
70
71
93
77
88
109
86
101
86
70
95
86
104
109
85
87
102
80
91
70
71
71
101
108
95
82
90
71
102
80
98
88
79
77
76
103
102
99
106
107
86
85
81
70
98
96
100
73
106
75
88
84
97
97
101
96
108
92
83
73
77
92
108
94
89
88
97
98
86
84
72
104
82
84
99
99
80
71
84
100
76
80
104
79
89
97
106
96
104
81
90
106
108
80
109
80
100
96
102
88
80
79
109
76
80
98
87
99
89
75
71
72
98
94
92
97
86
73
82
83
98
106
70
107
106
93
76
80
103
102
90
72
108
76
83
88
105
87
93
71
87
92
92
101
77
86
91
97
98
79
87
72
108
79
87
77
96
83
73
101
83
106
102
73
73
100
105
90
108
85
108
80
80
105
107
107
76
103
77
70
99
75
105
73
76
79
85
94
86
98
108
78
72
107
73
109
89
71
87
107
75
106
76
84
101
74
85
107
73
82
91
82
82
94
78
85
75
82
97
80
108
80
102
101
94
106
107
99
90
100
78
83
76
94
77
101
78
105
89
83
82
79
108
108
95
96
104
100
97
105
98
89
98
72
103
73
77
78
77
75
101
76
109
99
97
82
79
98
74
75
72
101
80
77
96
84
106
72
102
70
93
100
96
75
103
104
93
74
93
72
70
85
105
79
100
89
88
109
99
90
107
107
104
71
83
101
87
90
107
94
105
91
73
82
99
85
109
72
82
96
77
72
78
73
88
84
108
79
105
80
89
71
71
86
107
91
107
102
106
102
105
108
87
107
91
84
84
94
90
90
85
107
70
93
85
87
104
91
76
84
94
99
79
88
103
87
72
71
79
97
72
96
93
71
91
78
84
98
106
96
87
99
94
84
104
71
84
71
82
85
108
103
77
109
71
77
91
108
80
77
97
109
90
104
71
98
82
92
100
91
102
98
92
93
102
73
75
95
106
81
102
82
101
90
80
95
80
78
82
109
106
100
87
75
94
78
79
75
78
70
98
95
95
76
104
80
84
75
94
101
80
85
76
73
86
100
109
96
91
91
94
75
94
108
98
90
103
99
101
74
94
106
72
79
101
70
93
92
89
82
83
96
84
83
108
83
95
101
77
105
87
92
93
94
109
85
90
83
90
101
104
80
90
89
76
83
80
72
105
96
107
79
72
73
72
76
93
95
104
77
103
90
76
81
88
101
78
102
87
102
81
93
106
109
99
92
103
98
73
83
109
100
84
96
70
71
76
86
80
70
74
92
101
82
90
74
79
97
105
81
80
82
75
108
73
80
104
105
105
77
95
85
81
89
100
103
93
99
86
107
77
87
76
106
77
97
82
71
82
105
78
102
78
80
72
88
102
106
105
90
90
92
83
95
84
103
97
75
109
101
72
105
100
75
103
87
80
105
99
89
88
94
78
99
81
79
73
107
105
90
103
78
97
85
99
89
104
93
85
83
101
108
98
98
109
106
82
107
78
87
109
86
75
96
104
105
89
72
85
100
73
97
81
76
96
91
73
100
83
76
87
89
102
81
106
77
79
83
93
86
95
86
73
96
73
94
84
80
70
82
76
106
71
78
95
94
109
84
93
102
78
83
72
92
105
107
82
105
91
87
80
73
90
107
78
101
83
72
107
73
95
102
94
71
84
82
73
83
105
81
77
81
81
107
87
100
91
107
73
104
105
109
108
90
73
81
108
71
73
72
108
98
78
100
92
98
94
85
80
99
75
97
75
75
91
99
84
105
95
88
96
89
89
78
96
106
90
86
100
84
106
83
80
92
105
107
109
107
85
70
99
102
109
109
95
86
102
108
72
106
100
107
78
100
83
105
84
98
70
74
109
86
104
76
101
96
81
84
106
82
75
78
107
100
109
76
79
73
80
78
105
74
81
99
107
73
87
103
89
97
93
86
87
100
73
80
93
92
94
102
106
87
86
76
87
85
77
103
101
100
82
80
74
94
79
81
87
96
100
104
94
94
86
74
91
102
70
82
72
82
79
106
109
90
96
81
79
89
75
101
72
103
76
107
96
71
94
93
107
105
83
91
99
75
83
93
72
91
103
80
100
97
77
95
91
99
87
108
91
96
104
103
89
73
94
94
85
77
94
102
102
108
108
81
81
95
90
104
102
85
107
98
91
81
81
70
109
82
108
70
92
75
107
85
87
92
80
106
96
88
71
77
97
74
95
105
79
105
100
90
93
107
84
73
92
73
73
70
74
103
94
94
105
88
78
70
90
79
97
78
89
73
96
81
83
89
75
100
77
91
81
100
102
77
104
109
104
83
85
73
99
83
95
109
90
88
71
90
82
83
74
83
105
86
106
83
108
98
90
105
91
108
105
78
104
100
72
109
70
70
103
84
70
76
101
91
80
84
87
99
96
86
99
105
79
97
77
82
92
70
74
105
98
108
83
87
84
102
84
106
86
74
102
73
93
100
105
87
90
98
102
87
107
105
84
95
107
88
97
87
108
91
76
83
73
83
96
79
88
108
100
99
88
95
81
72
88
89
83
98
96
84
108
102
84
100
93
93
70
85
70
73
83
75
72
88
97
89
89
79
70
70
95
89
109
94
89
96
77
77
83
83
75
97
72
97
73
72
77
100
79
86
75
82
73
92
93
80
88
103
99
87
94
85
95
108
84
85
78
82
70
78
72
91
82
104
75
87
92
99
85
76
70
101
98
103
70
80
85
74
97
91
73
94
94
87
82
83
70
93
95
78
107
102
100
97
109
83
78
81
93
70
101
109
84
97
89
74
99
70
78
79
89
70
82
77
104
78
73
70
105
70
102
107
98
76
93
78
93
73
71
95
106
98
77
93
87
74
73
99
96
102
97
86
74
105
77
108
84
104
92
79
103
73
89
89
85
88
84
90
89
98
102
104
93
94
93
87
90
80
81
97
91
71
78
88
75
74
83
98
80
71
74
91
88
108
89
105
99
74
81
76
97
78
85
101
78
105
100
97
74
99
99
85
94
91
85
100
108
83
76
71
78
106
109
77
90
81
70
83
77
106
91
101
109
109
90
93
75
77
108
83
89
83
77
79
96
81
101
91
86
98
88
76
94
80
107
74
79
102
96
70
90
88
100
84
102
87
71
89
70
105
91
102
70
88
96
102
98
97
104
77
96
73
71
73
86
83
101
101
79
93
79
75
106
108
82
90
83
100
106
104
78
93
106
106
82
82
84
90
106
92
108
97
106
70
104
101
104
90
83
76
104
77
98
81
93
102
102
78
85
108
91
75
84
89
73
86
91
81
89
84
83
72
98
71
92
107
108
97
107
101
92
79
108
85
98
105
108
102
88
97
90
80
76
74
87
77
103
83
99
70
95
108
74
86
89
88
103
87
91
100
88
76
106
95
82
87
103
91
94
108
104
107
84
78
76
100
103
89
70
97
82
103
109
81
89
102
83
100
107
90
77
71
77
71
91
100
91
98
105
102
107
73
109
75
99
79
82
90
