pr226
226
1 15625 1150
2 14625 1200
3 14525 1200
4 14425 1200
5 14125 1200
6 14025 1200
7 13925 1200
8 13975 1500
9 13625 1200
10 13475 1200
11 13475 1600
12 13475 1750
13 13475 1900
14 13325 1200
15 13175 1200
16 13100 1725
17 12675 1725
18 12025 1300
19 11425 1600
20 9725 1450
21 7975 1150
22 6975 1200
23 6875 1200
24 6775 1200
25 6475 1200
26 6375 1200
27 6275 1200
28 6325 1500
29 5975 1200
30 5825 1200
31 5825 1600
32 5825 1750
33 5825 1900
34 5675 1200
35 5525 1200
36 5450 1725
37 5025 1725
38 4375 1300
39 3775 1600
40 2075 1450
41 2075 3850
42 3775 2300
43 4375 3300
44 5025 2150
45 5450 2150
46 5475 2500
47 5475 3000
48 5825 2050
49 6325 2200
50 7975 2150
51 8725 2550
52 8725 2650
53 8725 2750
54 8725 2850
55 8725 2950
56 8725 3050
57 8725 3200
58 8725 3300
59 8725 3400
60 8725 3500
61 8725 3600
62 8725 3700
63 8725 3800
64 9725 3850
65 11425 2300
66 12025 3300
67 12675 2150
68 13100 2150
69 13125 2500
70 13125 3000
71 13475 2050
72 13975 2200
73 15625 2150
74 16375 2550
75 16375 2650
76 16375 2750
77 16375 2850
78 16375 2950
79 16375 3050
80 16375 3200
81 16375 3300
82 16375 3400
83 16375 3500
84 16375 3600
85 16375 3700
86 16375 3800
87 4875 6500
88 4875 6700
89 4875 6600
90 4875 6800
91 4875 6900
92 4875 7000
93 4875 7100
94 4875 7200
95 4975 6500
96 4975 6600
97 4975 6700
98 4975 6800
99 4975 6900
100 4975 7000
101 4975 7100
102 4975 7200
103 12525 6500
104 12525 6700
105 12525 6600
106 12525 6800
107 12525 6900
108 12525 7000
109 12525 7100
110 12525 7200
111 12625 6500
112 12625 6600
113 12625 6700
114 12625 6800
115 12625 6900
116 12625 7000
117 12625 7100
118 12625 7200
119 12625 8450
120 12625 8550
121 12625 8650
122 12625 8750
123 12625 8850
124 12625 8950
125 12625 9050
126 12525 8450
127 12525 8650
128 12525 8550
129 12525 8750
130 12525 8950
131 12525 8850
132 12525 9050
133 10075 8800
134 9975 8800
135 9875 8800
136 9775 8800
137 4975 8450
138 4975 8550
139 4975 8650
140 4975 8750
141 4975 8850
142 4975 8950
143 4975 9050
144 4875 8450
145 4875 8650
146 4875 8550
147 4875 8750
148 4875 8950
149 4875 8850
150 4875 9050
151 2425 8800
152 2325 8800
153 2225 8800
154 2125 8800
155 1875 11850
156 1975 11850
157 2075 11850
158 2425 11850
159 2525 11850
160 2625 11850
161 2725 11850
162 2825 11850
163 2925 11850
164 3025 11850
165 3125 11850
166 3375 11850
167 3475 11850
168 3575 11850
169 3675 11850
170 3775 11850
171 4075 11850
172 4175 11850
173 4275 11850
174 4375 11850
175 4475 11850
176 4575 11850
177 4675 11850
178 4775 11850
179 4875 11850
180 4975 11850
181 5375 11850
182 5475 11850
183 5575 11850
184 5675 11850
185 5775 11850
186 5875 11850
187 5975 11850
188 6075 11850
189 6175 11850
190 6275 11850
191 9525 11850
192 9625 11850
193 9725 11850
194 10075 11850
195 10175 11850
196 10275 11850
197 10375 11850
198 10475 11850
199 10575 11850
200 10675 11850
201 10775 11850
202 11025 11850
203 11125 11850
204 11225 11850
205 11325 11850
206 11425 11850
207 11725 11850
208 11825 11850
209 11925 11850
210 12025 11850
211 12125 11850
212 12225 11850
213 12325 11850
214 12425 11850
215 12525 11850
216 12625 11850
217 13025 11850
218 13125 11850
219 13225 11850
220 13325 11850
221 13425 11850
222 13525 11850
223 13625 11850
224 13725 11850
225 13825 11850
226 13925 11850
104
75
76
70
91
94
98
83
88
80
79
100
87
106
94
79
90
107
100
72
78
73
82
103
78
91
108
85
90
82
81
105
81
108
109
78
75
91
91
87
98
86
79
109
97
95
91
72
94
93
96
101
108
98
103
79
84
104
88
89
101
71
99
91
81
106
70
107
90
99
102
93
84
100
97
70
109
95
108
102
83
96
80
92
109
98
90
86
109
71
107
73
92
101
109
78
79
85
96
102
80
109
92
103
103
104
79
95
83
100
89
104
107
93
109
77
90
72
91
76
75
90
85
84
73
98
79
89
83
77
90
94
101
105
106
83
82
107
87
87
97
109
81
103
86
98
80
71
74
84
106
96
101
96
86
83
91
104
80
93
109
74
86
100
82
71
99
105
86
86
82
94
97
97
78
74
82
89
79
106
78
94
95
99
76
73
77
77
99
78
74
82
78
100
74
103
70
95
86
106
73
96
104
101
106
106
78
82
81
96
90
80
101
78
97
76
79
77
83
75
72
76
75
71
109
99
95
80
82
105
82
101
85
80
72
76
85
95
98
78
75
81
83
78
95
84
105
108
78
77
104
85
90
97
100
101
91
79
77
95
109
109
72
107
89
72
84
106
73
88
82
87
70
107
104
87
84
88
87
98
81
79
84
90
98
95
92
75
78
96
100
99
103
91
104
92
70
79
82
80
78
77
109
77
76
93
90
81
77
82
75
103
97
108
95
74
95
109
85
82
96
95
76
77
72
83
82
95
99
92
75
77
84
94
109
71
76
81
89
76
73
107
101
82
77
92
88
94
73
75
93
81
105
74
100
76
97
70
101
93
80
97
95
98
92
99
104
93
95
86
93
73
97
73
76
76
85
88
88
102
72
89
94
73
71
106
109
89
97
106
83
85
78
85
70
103
85
84
87
97
108
76
94
96
83
77
82
77
82
102
72
89
85
88
78
105
84
96
72
75
88
80
90
96
91
96
103
83
72
81
74
88
91
83
83
72
81
104
101
92
83
88
77
104
87
70
109
82
80
82
90
83
71
73
91
94
82
106
75
70
84
90
105
101
92
107
102
98
75
80
94
98
104
76
82
82
102
76
101
92
97
98
94
97
101
83
86
78
104
83
91
89
89
96
107
94
80
84
77
109
103
87
76
78
90
108
78
88
83
98
92
70
89
87
107
108
106
104
99
88
87
100
76
100
79
105
82
99
86
86
89
74
79
76
81
73
72
103
104
82
93
97
100
89
72
88
72
76
79
79
81
109
78
99
81
70
79
71
108
101
79
74
97
88
90
94
99
98
106
77
89
71
76
103
75
100
92
103
70
91
83
103
81
101
101
73
73
104
80
104
106
92
73
102
103
104
89
71
108
82
81
101
97
71
73
78
90
80
95
99
85
70
94
74
75
87
101
71
75
98
106
94
84
103
70
91
97
82
83
78
90
105
99
105
96
108
75
84
80
77
88
108
101
104
73
71
95
92
77
107
104
106
102
71
105
87
86
74
80
109
88
75
77
78
99
96
85
75
74
107
71
90
96
98
109
78
82
94
101
92
101
78
80
99
75
101
91
91
87
81
92
98
89
78
79
98
102
74
90
95
79
82
101
71
70
109
86
107
84
103
100
86
86
81
99
91
105
95
88
84
107
90
77
72
76
87
86
92
94
87
109
93
89
89
83
77
90
101
105
85
92
82
86
98
79
91
97
107
96
93
73
97
106
84
74
72
100
94
108
109
106
104
87
80
88
104
89
108
84
74
92
109
92
87
105
81
80
75
105
90
97
78
86
75
74
102
109
81
78
83
87
100
82
83
72
78
101
102
79
75
109
93
87
90
91
94
102
91
90
107
100
81
107
84
78
74
109
82
92
76
84
78
79
74
95
81
72
71
86
101
77
99
76
84
100
108
73
80
85
79
108
106
74
95
87
70
83
77
74
87
104
88
93
96
94
103
104
99
94
85
102
100
74
83
97
80
105
109
71
75
109
94
78
96
99
109
92
77
83
92
82
109
81
94
81
103
75
98
86
103
107
101
98
92
95
108
101
82
88
98
92
72
72
103
72
109
95
98
90
71
103
81
76
108
87
94
105
100
109
91
103
102
71
81
84
75
92
102
95
80
95
78
97
80
108
91
75
97
101
87
81
85
103
73
88
84
73
71
92
96
77
75
101
73
82
81
107
106
89
80
95
92
103
95
108
105
98
73
102
100
103
76
90
71
99
103
70
93
104
82
74
97
91
98
72
95
100
93
103
97
78
99
70
84
95
77
79
93
98
74
106
86
99
80
84
101
74
81
95
71
76
70
108
73
95
71
78
103
85
92
81
81
106
86
75
90
105
81
82
82
107
78
94
79
82
108
87
72
102
87
82
90
101
100
105
102
72
91
73
99
108
94
88
88
86
89
102
93
83
83
83
98
71
108
74
95
76
71
108
70
101
106
72
103
99
91
73
82
72
94
72
106
106
76
84
88
74
70
72
93
102
74
92
76
92
85
94
87
80
98
98
81
72
90
71
100
109
100
109
100
85
95
76
76
71
94
94
103
94
83
96
89
98
71
92
104
75
88
83
93
72
108
73
79
71
102
97
98
101
103
92
76
80
102
76
80
75
107
85
103
82
72
78
91
79
105
84
78
76
78
96
107
82
78
106
74
105
71
70
74
89
83
78
82
105
108
96
80
77
84
73
78
93
78
82
90
84
89
91
109
95
94
77
79
103
96
100
89
80
108
92
74
90
105
91
102
71
97
96
83
79
72
83
70
105
101
93
102
83
71
97
71
91
105
107
99
102
105
79
107
90
70
101
108
80
72
84
104
76
108
85
106
103
80
98
102
100
76
78
71
82
106
78
75
98
87
89
109
73
82
76
106
104
108
105
78
106
105
104
88
94
78
78
91
102
75
78
86
71
75
86
94
74
106
91
98
90
103
95
103
79
106
106
93
98
95
94
74
106
83
80
86
102
94
76
103
76
74
72
70
90
92
91
89
107
104
103
74
76
82
94
96
103
106
89
108
87
103
94
95
86
79
107
98
84
85
86
78
88
77
102
70
76
93
80
97
92
76
75
100
87
87
77
103
106
97
89
71
73
99
104
93
95
100
97
84
79
83
100
73
92
83
107
78
86
78
90
79
79
77
85
88
85
79
84
94
88
96
99
94
70
75
101
84
93
99
90
109
81
71
102
70
70
93
84
70
89
80
83
105
90
92
95
71
84
73
83
108
88
70
78
81
87
89
100
100
103
76
87
75
88
89
101
102
79
98
75
94
83
82
74
104
94
88
89
87
102
78
83
89
92
108
107
81
84
74
93
101
79
102
103
88
77
83
96
90
87
99
87
78
76
85
87
101
75
74
97
82
105
85
107
93
74
98
88
76
109
73
104
79
99
90
82
106
96
74
71
73
94
87
72
102
78
73
107
95
80
98
97
102
101
95
76
73
83
79
79
99
89
108
70
74
100
95
97
107
73
81
107
106
99
71
95
71
88
109
93
101
87
103
105
85
92
76
100
107
87
84
88
94
106
83
78
86
74
70
107
105
96
94
90
95
72
98
107
95
73
90
93
73
94
98
95
70
100
83
78
108
102
72
106
102
78
71
73
99
101
78
88
78
92
105
87
103
75
97
84
72
106
87
91
74
86
106
109
104
87
85
71
92
96
92
101
97
86
88
77
74
108
72
88
73
102
75
95
82
85
84
75
104
75
93
104
96
95
71
74
85
83
97
97
92
76
103
105
81
90
101
109
105
80
100
100
74
102
75
76
71
94
82
103
105
91
100
91
107
97
75
79
92
105
104
83
98
91
82
94
77
89
95
78
89
97
73
76
97
108
107
85
88
93
108
88
89
76
107
93
83
99
100
99
101
72
89
93
96
101
85
77
84
77
77
90
107
79
80
70
70
71
104
91
84
84
73
71
82
100
74
85
80
103
98
86
88
106
85
88
108
74
71
94
80
92
96
88
94
106
88
84
97
89
84
93
76
89
74
99
83
84
98
75
82
107
86
81
85
77
84
75
96
89
88
79
88
87
71
80
73
106
74
109
74
96
79
75
70
109
79
108
100
92
107
103
89
88
96
82
108
106
77
94
82
76
106
98
100
86
99
90
86
94
93
89
89
77
89
93
107
104
79
91
77
84
108
90
85
102
103
107
109
81
104
89
84
105
82
94
92
96
76
95
100
87
82
105
102
80
89
76
107
73
74
86
94
92
78
75
86
92
108
108
72
98
102
85
85
97
75
84
96
95
105
87
75
85
104
84
105
89
95
95
95
82
73
96
95
107
88
75
77
84
102
108
102
93
95
98
85
100
99
107
72
73
82
88
74
104
73
91
91
103
108
94
109
89
84
94
96
106
75
72
96
84
94
75
101
81
75
102
84
98
98
107
108
103
80
92
83
96
98
108
90
107
80
74
102
95
74
98
105
81
71
108
73
109
75
97
95
103
88
107
82
98
97
76
108
89
83
74
93
84
93
81
96
70
82
82
75
84
108
75
90
104
107
95
70
95
102
71
74
71
73
104
103
78
80
71
88
95
99
83
104
94
98
106
107
77
75
70
99
72
73
97
84
71
103
87
97
97
94
108
104
81
92
77
91
84
78
75
97
104
71
109
77
108
72
101
109
99
74
95
93
82
82
93
93
93
101
102
73
85
85
80
95
101
98
75
102
101
100
96
77
102
87
106
106
102
104
108
100
103
72
108
83
108
87
78
86
107
98
91
109
73
72
76
73
98
74
97
104
80
81
79
78
71
84
74
96
102
82
95
74
96
92
77
76
108
71
76
96
97
105
87
95
102
89
70
101
105
92
104
106
95
86
87
82
108
94
100
79
91
109
108
102
87
103
107
72
83
106
96
81
79
96
89
70
108
72
89
90
75
74
94
106
96
106
88
107
109
100
96
72
108
73
77
72
108
89
76
103
73
82
97
107
109
87
89
74
91
108
106
74
101
105
93
90
92
86
83
79
97
78
70
81
74
79
97
88
95
73
75
72
101
100
79
77
90
87
95
91
106
94
99
76
90
100
77
80
91
106
103
104
82
86
87
92
101
103
73
70
80
79
93
94
96
75
83
86
72
88
108
81
107
78
75
96
89
73
92
102
93
77
76
93
86
74
82
95
101
72
76
98
102
101
108
94
91
77
92
104
77
81
71
92
108
91
91
70
97
80
84
90
106
87
91
78
86
106
95
92
73
83
106
84
82
89
87
89
108
90
98
90
74
82
97
100
102
101
89
78
83
90
77
78
97
90
107
98
82
95
102
106
75
103
99
100
100
83
102
71
100
83
77
76
71
101
105
73
89
77
104
73
95
95
85
81
92
75
100
91
97
73
88
88
73
85
72
82
76
84
106
88
106
80
86
94
83
87
95
92
76
83
101
77
85
102
102
83
97
77
78
72
101
95
101
88
84
77
96
94
74
99
98
85
104
104
100
104
79
75
91
107
97
70
98
91
92
104
71
75
104
86
90
90
92
105
107
89
108
78
75
89
93
97
87
84
92
107
88
98
108
87
70
104
102
79
70
108
102
100
105
75
83
70
79
71
79
80
84
75
80
80
74
89
79
94
71
71
87
83
89
100
104
75
71
105
100
78
89
70
81
83
75
98
97
102
102
104
78
76
103
102
106
108
100
79
78
97
100
92
73
101
71
70
91
104
86
96
75
106
76
98
70
85
93
80
73
86
85
77
97
93
77
74
88
90
97
92
107
99
102
109
74
84
90
97
95
102
92
75
107
99
78
105
93
73
71
94
100
93
102
78
79
81
100
103
99
73
90
71
77
83
83
96
81
86
107
75
75
100
104
84
99
74
103
90
70
95
98
98
74
83
105
76
90
99
87
86
107
82
86
79
94
106
101
103
104
99
73
94
70
75
82
90
92
87
72
108
96
80
93
85
99
90
100
85
80
97
83
109
104
77
93
70
108
95
83
97
93
100
108
104
73
90
82
108
70
73
88
105
84
76
81
79
78
80
89
107
90
100
90
109
97
81
88
75
105
107
94
94
89
97
85
107
100
106
97
100
105
73
79
88
82
106
84
97
77
101
96
108
72
99
99
79
80
102
70
102
107
78
109
102
91
89
91
93
94
107
71
105
93
102
93
105
98
107
104
73
94
82
103
82
81
94
94
97
83
93
95
94
90
87
104
89
101
77
94
72
97
108
90
107
74
89
107
76
92
71
101
81
98
78
88
100
95
87
108
77
107
102
99
93
88
95
71
103
93
100
87
75
107
101
84
106
95
89
80
105
103
109
97
95
89
107
75
89
80
84
76
73
71
104
91
106
107
85
107
96
85
95
77
93
77
95
76
70
77
87
77
80
85
77
102
93
82
102
86
91
109
85
86
103
81
100
102
78
93
90
83
100
99
109
88
96
87
98
106
96
108
99
73
81
84
104
83
106
103
105
107
81
94
75
91
102
87
81
77
71
100
109
104
99
87
87
72
75
73
85
103
102
100
84
84
92
101
70
105
77
78
92
89
91
106
101
105
109
83
88
95
86
105
79
80
101
107
85
94
78
83
73
106
105
109
75
86
73
80
94
71
104
88
94
73
105
91
101
99
78
99
89
76
75
83
95
102
83
86
94
97
105
92
93
108
81
70
95
88
81
92
105
101
98
93
88
73
75
79
72
86
80
71
83
92
71
92
79
103
91
79
91
82
108
101
74
107
79
72
73
73
98
107
78
76
75
85
90
100
105
103
104
84
107
73
86
88
88
98
92
85
87
79
83
72
87
94
96
81
89
107
88
97
85
107
102
107
107
103
75
71
92
107
77
76
87
96
83
87
71
70
104
95
85
102
95
107
99
87
78
86
81
103
77
97
91
77
88
74
106
92
91
92
82
107
103
103
84
75
74
97
109
72
107
85
87
100
94
99
86
72
76
88
77
108
72
72
106
89
77
73
80
100
76
90
100
102
108
75
98
75
98
87
88
96
108
71
107
88
73
97
105
72
108
105
95
97
72
86
92
102
77
89
101
103
107
81
82
70
79
107
81
80
92
88
74
77
84
94
83
99
87
92
77
72
91
72
86
87
109
76
96
94
103
97
90
101
107
90
77
105
78
92
82
105
88
84
106
105
107
74
94
94
74
100
80
88
76
94
82
71
105
81
77
87
76
73
93
78
81
108
99
80
106
96
75
96
77
76
96
98
88
105
100
70
79
74
76
96
109
74
99
78
73
93
109
106
107
98
71
105
104
87
102
75
98
86
85
99
107
102
91
97
83
85
101
70
72
101
79
80
94
76
88
103
96
105
95
103
85
75
89
79
78
84
85
81
70
102
97
99
91
101
77
70
109
93
89
85
101
77
83
103
80
109
91
73
76
107
99
86
97
92
97
88
91
106
71
76
80
89
101
72
77
70
77
96
78
82
72
106
85
107
87
87
99
107
84
107
93
86
81
86
96
78
105
92
80
73
86
74
86
78
107
106
72
107
83
97
101
75
82
94
73
94
83
94
94
89
89
94
108
79
105
81
74
104
103
91
77
90
105
76
96
85
74
97
93
99
95
71
99
104
71
73
89
78
86
93
97
84
75
74
89
88
75
93
78
74
77
92
97
91
96
74
79
95
105
92
99
103
90
99
95
89
95
83
100
107
74
108
94
86
98
103
75
96
79
83
84
85
82
88
93
71
107
107
106
99
74
108
99
85
106
85
98
103
106
108
90
86
70
98
90
102
102
109
90
79
102
74
86
80
102
87
96
107
82
105
99
97
108
105
93
87
96
76
84
73
97
99
84
70
98
72
88
76
96
75
96
78
86
92
97
91
89
73
107
105
101
82
95
105
95
99
88
101
100
98
84
79
90
82
74
100
86
79
86
105
102
106
90
84
80
95
88
103
98
102
86
96
108
79
104
92
91
98
92
85
79
109
82
74
95
79
83
95
99
101
100
108
106
90
75
82
101
101
73
74
75
109
104
96
79
72
94
97
96
93
83
105
79
94
96
81
102
83
72
103
87
82
99
109
74
83
97
78
107
76
108
78
100
104
73
82
102
101
89
105
86
101
90
105
78
85
99
108
105
109
80
76
107
72
99
101
104
101
92
106
108
76
98
107
99
109
106
109
106
93
95
83
101
74
76
107
106
74
78
108
102
71
84
79
87
86
83
91
106
71
109
77
70
103
107
80
73
85
99
98
97
82
107
87
77
108
78
81
101
93
70
104
95
95
108
103
84
75
76
71
98
83
92
88
83
92
102
77
78
95
83
95
93
74
107
109
102
99
83
107
70
109
94
72
99
86
103
76
88
88
109
74
87
71
96
90
106
74
84
90
106
93
75
102
92
70
72
78
73
79
97
95
109
83
76
101
98
108
70
103
85
77
79
107
73
76
74
91
83
106
76
104
102
101
99
103
72
70
97
89
100
95
96
103
81
71
88
93
76
89
80
79
89
81
81
98
72
73
81
108
94
108
71
70
104
73
106
88
87
73
78
102
105
76
97
90
108
105
91
83
73
93
101
84
94
94
100
87
84
104
94
108
99
71
76
76
82
103
88
91
99
105
73
70
78
94
100
97
93
80
109
108
89
95
87
71
91
82
96
83
85
95
89
91
90
93
100
107
74
103
94
87
83
100
80
72
109
77
80
107
108
86
85
90
76
96
108
103
72
78
92
109
107
87
81
89
107
84
70
82
74
99
76
77
95
75
99
92
108
72
86
96
105
81
100
100
82
88
84
108
101
106
81
70
70
88
94
79
70
85
84
97
73
105
81
92
102
102
75
75
77
89
85
88
109
106
82
106
107
103
80
78
73
78
86
84
78
82
81
92
91
88
99
89
78
107
78
92
82
108
103
84
103
70
70
92
70
105
85
77
103
85
104
86
78
82
84
89
76
85
82
97
82
85
101
89
75
79
82
102
90
71
73
87
98
88
105
75
77
94
104
84
71
105
75
107
83
85
98
85
102
88
80
76
99
84
82
97
71
78
102
104
87
101
94
84
94
87
85
85
106
80
81
72
105
109
89
70
73
88
73
70
101
92
76
71
87
108
73
105
90
87
98
108
95
103
80
108
83
98
99
83
70
80
97
87
79
95
108
70
102
75
73
102
106
89
77
90
84
70
107
74
108
76
109
106
99
77
87
94
73
99
82
92
95
103
71
99
103
104
89
107
83
78
97
77
107
71
92
75
108
82
72
83
109
107
103
105
99
71
83
91
88
80
90
88
71
75
108
83
75
103
107
109
104
105
97
105
106
78
89
92
101
88
103
93
109
101
97
89
71
76
98
82
80
98
77
104
92
100
71
96
73
102
80
109
78
83
75
76
86
101
75
101
105
80
80
71
84
82
99
82
80
78
103
107
97
105
89
99
72
84
73
73
99
83
72
98
99
93
76
70
86
78
83
100
95
89
109
105
83
82
100
109
100
99
96
86
91
101
102
89
74
89
97
86
72
103
76
92
88
79
103
93
92
95
88
75
102
93
107
83
80
92
109
81
93
108
86
108
95
85
85
75
89
76
72
80
88
74
84
92
78
73
98
75
103
89
107
81
80
82
101
94
108
106
85
70
105
97
96
108
75
99
101
72
103
85
102
102
91
76
95
73
92
83
101
71
79
99
107
103
92
72
104
105
72
90
93
93
90
81
94
86
96
93
88
88
75
76
90
72
73
93
70
107
73
92
105
90
84
95
105
76
90
97
71
108
82
93
85
77
103
70
98
75
87
76
99
76
101
105
92
102
98
100
104
107
71
70
86
99
70
75
76
72
106
84
96
104
76
91
92
102
71
78
106
74
95
95
104
98
101
107
78
89
94
106
70
103
109
71
75
90
93
89
77
83
84
96
75
76
100
99
99
80
100
90
94
107
95
96
87
84
99
107
101
80
77
87
79
98
91
72
96
71
89
87
92
86
96
70
97
96
92
103
89
84
101
106
103
71
97
77
80
82
95
81
100
108
95
99
100
89
73
81
71
107
107
85
80
88
102
70
106
93
83
93
79
89
106
101
84
93
76
96
90
107
98
77
97
83
84
102
109
102
103
73
109
101
97
77
98
74
87
104
77
97
73
70
84
88
75
93
71
109
95
79
77
79
98
87
76
103
101
103
97
88
109
97
101
85
100
101
81
75
73
75
99
103
86
74
81
104
80
88
85
103
76
106
82
70
96
70
70
72
72
79
105
104
83
82
85
76
109
103
86
107
77
105
99
84
106
97
85
89
105
87
72
92
74
83
97
81
93
84
103
77
103
71
100
84
89
74
109
105
90
97
96
74
108
88
86
90
101
90
81
99
79
98
96
107
73
72
73
87
79
95
102
94
80
84
91
79
87
73
70
92
77
107
96
105
84
81
92
72
87
102
101
71
104
97
92
93
81
99
83
80
96
80
100
83
93
81
77
70
85
89
104
102
100
87
85
79
95
84
92
87
96
70
104
100
101
107
77
73
75
106
102
77
86
79
80
92
100
101
107
83
108
89
106
86
97
108
97
92
75
73
78
109
96
80
107
107
78
74
107
79
109
70
91
93
107
75
99
98
95
79
101
77
106
104
77
100
99
89
73
96
106
87
99
108
79
108
85
98
92
100
93
71
88
94
105
96
78
85
76
85
101
72
74
100
89
71
104
89
90
79
79
76
107
103
99
100
93
108
71
75
101
74
107
106
100
84
105
103
94
70
84
83
102
96
74
89
79
94
108
100
101
86
99
88
70
73
93
108
91
78
80
102
83
84
95
71
90
86
75
88
77
84
91
94
74
95
94
107
86
92
80
101
70
94
84
90
98
85
106
100
71
107
73
81
93
105
102
94
72
77
86
102
98
71
88
93
105
85
102
106
100
75
109
84
92
78
75
76
97
107
105
108
91
75
74
70
90
75
83
80
104
81
106
70
101
89
92
97
75
81
89
87
83
73
75
74
79
72
88
101
82
82
99
109
101
78
90
92
92
96
83
76
88
98
97
82
102
80
70
96
96
84
80
96
74
71
89
78
87
98
106
86
85
108
72
93
95
100
74
92
74
81
81
98
74
80
96
73
77
70
71
77
80
78
83
88
73
109
104
89
93
93
73
85
83
95
103
87
96
92
81
93
84
78
75
91
93
98
74
76
82
105
78
101
91
71
81
76
72
107
79
73
87
80
102
101
90
76
105
88
95
95
72
87
98
102
81
78
80
97
101
105
70
90
108
90
105
79
82
102
71
81
79
105
102
77
97
91
83
99
85
106
94
70
70
74
92
107
92
75
93
109
81
106
79
72
72
83
99
101
87
85
78
70
79
86
99
74
97
81
102
99
100
76
108
86
76
71
74
91
84
82
83
86
79
71
94
109
83
88
103
106
72
90
93
99
104
82
84
105
71
78
92
86
109
79
89
74
89
85
92
71
88
76
98
92
87
71
108
87
93
90
87
102
76
99
108
80
74
84
106
88
83
82
91
82
89
90
85
105
70
77
98
79
81
88
90
102
96
82
79
71
85
80
81
97
92
99
99
109
92
92
86
104
76
78
85
80
103
85
72
82
75
102
92
91
70
79
107
109
107
80
73
93
76
90
103
83
79
87
91
106
78
75
79
88
90
89
88
104
96
72
82
94
79
72
91
106
96
88
109
97
79
74
80
97
105
89
103
76
86
81
98
70
74
96
108
98
70
83
102
73
84
76
83
77
75
99
85
94
79
91
73
90
77
78
78
82
101
92
83
107
73
88
81
90
77
99
87
100
72
93
101
93
106
80
92
79
70
88
76
85
98
96
93
96
84
103
82
98
72
91
98
105
95
108
81
86
106
92
87
95
71
94
87
98
75
93
107
107
105
86
70
88
81
80
90
106
93
82
83
71
73
70
108
94
89
86
96
90
78
100
76
107
100
78
83
81
102
73
89
91
107
77
77
95
94
98
73
82
80
73
91
74
88
78
105
82
70
77
104
78
108
74
102
88
102
109
73
106
108
86
71
85
85
70
95
73
102
94
104
94
100
99
97
75
102
75
81
100
102
81
96
97
74
71
109
101
70
108
89
109
108
100
75
74
87
96
94
88
100
77
73
71
89
89
85
81
91
99
84
70
91
90
79
93
88
82
81
92
99
90
91
105
103
89
79
82
72
91
105
106
93
86
90
77
105
90
79
94
94
80
74
102
107
81
71
80
104
107
74
83
78
104
95
88
77
79
90
100
72
87
104
104
92
89
93
103
105
94
87
96
72
97
75
101
94
78
103
107
95
82
72
91
87
101
101
72
109
102
91
98
97
93
98
98
71
87
88
71
76
85
77
96
88
86
103
107
109
103
103
78
72
88
75
100
101
73
93
106
103
108
100
106
80
76
97
95
78
95
77
75
80
104
105
94
71
96
79
72
96
102
87
104
104
92
75
93
73
108
71
93
93
75
92
101
72
101
92
73
98
81
99
108
93
78
100
73
109
102
97
83
78
106
87
83
74
79
81
88
98
95
92
83
92
106
83
99
87
87
107
70
107
102
106
90
108
72
76
75
89
72
78
77
79
108
79
109
76
95
75
99
105
97
90
90
103
90
89
107
101
98
95
95
72
76
82
76
109
92
74
90
107
79
79
102
93
106
71
103
102
70
75
95
85
106
82
84
84
74
94
79
75
70
70
76
82
94
83
92
103
76
87
71
92
90
98
102
77
70
71
73
97
108
95
100
103
75
101
79
99
98
106
93
97
92
89
109
72
89
85
88
83
88
73
82
76
81
73
109
74
72
88
106
109
71
73
81
71
99
74
75
85
98
85
94
94
75
72
105
91
95
88
73
88
78
90
83
74
85
75
98
82
95
88
76
89
97
88
96
100
74
104
98
74
91
71
90
91
91
100
106
91
95
100
79
87
96
81
82
79
93
71
95
109
83
81
77
94
97
91
71
70
97
97
99
89
108
88
81
103
101
83
78
103
89
106
90
87
93
85
86
75
81
71
74
92
108
73
102
75
96
76
103
103
95
76
85
98
109
81
91
107
72
87
70
103
102
96
73
73
102
88
104
109
82
106
100
79
91
90
71
97
77
106
104
92
92
88
105
79
103
72
79
94
76
102
106
93
101
95
93
93
106
105
96
93
95
104
109
101
95
82
103
87
72
77
98
72
81
95
87
86
105
102
86
97
98
90
105
70
78
72
79
82
105
104
102
76
104
73
108
79
72
107
72
70
89
93
76
105
108
104
102
79
100
108
96
100
81
106
109
109
74
73
100
89
92
109
82
98
109
101
83
100
70
108
104
102
97
98
96
95
88
107
72
75
78
80
93
78
89
77
76
103
88
76
71
73
89
96
91
94
71
108
80
93
106
84
104
102
103
108
108
83
90
88
83
73
89
100
101
103
91
101
71
95
96
96
103
91
83
81
106
73
101
70
76
73
100
85
104
79
84
75
89
77
92
71
80
106
100
103
95
104
70
105
94
99
91
100
107
86
95
80
95
98
96
91
79
105
98
94
104
96
95
95
103
84
109
73
79
94
88
73
100
81
98
97
88
91
96
90
76
107
87
77
90
74
94
76
104
77
86
79
96
82
72
73
85
80
109
92
96
84
84
73
92
98
87
109
95
88
79
73
82
105
106
81
99
97
89
71
105
100
71
88
95
100
71
103
101
75
109
97
99
77
96
89
95
73
102
101
97
74
73
73
93
97
88
106
97
86
73
85
72
79
78
73
102
95
109
75
109
82
84
80
71
88
109
104
77
97
78
81
79
80
76
74
85
91
106
73
94
74
84
71
102
101
73
106
101
99
105
107
70
96
107
74
93
102
81
102
101
88
80
81
73
99
107
92
97
70
79
71
96
84
84
99
107
95
98
92
76
71
99
81
104
107
104
101
109
79
95
75
97
95
106
102
95
74
83
103
91
83
71
106
88
92
105
83
79
92
73
101
91
107
100
99
107
91
101
99
71
90
76
87
79
85
70
78
104
94
86
75
81
81
107
100
101
100
81
70
97
109
85
78
97
72
91
99
78
89
105
83
91
79
106
107
96
74
84
82
70
79
99
80
84
81
90
108
73
74
102
83
83
90
70
96
103
70
96
72
90
109
77
84
104
87
72
109
83
88
75
75
103
76
90
78
83
82
84
97
90
102
80
92
83
74
100
97
101
85
75
97
103
102
104
72
104
90
102
94
90
109
83
71
92
85
100
102
72
101
90
109
73
81
77
88
82
93
88
91
107
75
109
104
85
77
98
78
73
103
85
102
107
73
108
104
101
92
80
78
81
82
107
71
102
107
103
103
96
108
81
84
97
107
94
92
76
81
84
78
108
71
76
94
88
101
70
93
73
70
87
104
103
88
87
95
105
99
85
97
100
71
87
78
86
107
92
85
92
91
109
104
80
98
99
76
103
72
74
101
98
78
95
82
74
96
78
85
90
105
80
86
72
77
82
80
92
107
105
107
84
83
93
84
95
95
75
82
80
83
104
82
78
97
98
78
82
97
81
89
80
87
78
78
106
95
75
89
97
93
108
70
77
80
100
106
71
78
75
71
93
78
78
75
102
90
71
90
102
84
103
107
92
74
90
97
83
101
89
75
102
94
101
95
87
98
75
82
89
72
83
106
76
88
70
104
98
71
79
80
104
96
105
83
102
109
97
95
75
102
101
85
83
104
77
108
98
98
89
100
109
85
100
93
95
98
103
73
81
88
81
95
94
86
109
105
86
70
93
73
105
90
86
87
95
75
83
78
85
96
79
96
75
76
93
71
84
99
74
78
109
94
101
87
97
109
70
94
108
77
85
93
79
90
100
81
108
103
96
77
74
107
83
102
75
94
94
104
76
84
94
103
100
97
92
96
97
86
97
80
87
75
81
76
83
86
71
75
88
99
90
82
79
76
87
87
84
106
71
96
102
109
75
84
103
104
85
97
78
73
88
72
89
104
106
71
78
101
80
94
76
79
75
91
109
90
83
73
79
97
105
103
84
77
73
93
94
84
96
76
71
109
82
103
72
107
71
84
72
72
86
80
80
92
75
106
108
70
77
78
108
74
83
93
92
92
105
90
105
92
101
73
93
75
103
91
101
101
88
93
105
103
82
98
75
82
72
102
76
88
103
84
99
78
94
106
71
84
106
84
71
73
109
70
104
98
72
86
80
109
86
81
104
80
98
76
95
104
84
78
84
95
97
109
92
109
81
102
77
98
84
73
106
75
95
92
96
99
76
79
88
84
80
103
103
94
80
95
98
103
94
76
77
76
97
104
70
94
84
105
70
89
104
99
96
89
91
107
77
85
107
109
102
97
102
81
108
79
92
81
93
102
103
79
96
102
89
76
106
98
79
108
105
102
109
96
82
75
106
84
86
81
109
74
75
101
96
94
80
84
92
108
80
94
78
79
82
70
80
91
88
96
91
77
72
100
83
90
96
91
83
101
77
95
75
77
101
96
103
70
82
92
74
86
90
78
99
92
94
83
79
108
96
105
87
77
89
105
75
95
105
70
87
79
96
70
84
94
92
89
98
105
84
72
70
105
85
95
95
85
99
78
101
87
98
76
107
101
93
109
108
73
103
79
76
75
72
71
89
85
98
81
106
103
76
71
78
108
103
105
104
101
96
102
106
100
94
106
88
108
108
81
86
79
80
91
108
87
109
89
105
90
109
87
102
72
92
106
76
103
97
75
81
73
86
100
78
91
75
83
77
97
85
85
74
97
109
77
95
77
102
85
84
77
95
76
94
76
82
88
79
98
91
94
87
98
77
104
74
84
82
70
90
94
74
104
95
86
70
75
83
108
92
74
82
86
78
71
82
107
79
106
72
76
85
97
84
88
109
89
109
103
83
76
104
106
105
99
101
96
74
77
90
92
96
73
76
85
75
97
83
94
74
72
94
71
71
101
71
107
102
104
80
93
94
92
102
84
83
85
92
70
107
92
83
108
72
81
97
74
101
89
80
83
93
73
73
74
80
89
72
84
87
84
106
84
82
103
100
70
80
71
85
104
71
104
103
70
84
108
98
70
86
88
97
91
78
77
97
94
89
86
72
105
105
78
107
85
81
108
82
103
104
89
87
71
87
72
109
81
86
79
93
103
84
78
71
71
102
102
79
105
98
76
86
100
76
93
91
73
81
92
73
95
106
82
91
97
99
93
101
77
93
100
84
71
104
106
81
85
109
74
82
76
91
98
106
99
72
98
75
78
99
102
104
78
71
106
95
95
91
86
95
74
96
99
103
100
82
85
103
95
83
97
107
79
84
104
109
88
77
84
90
70
103
83
72
76
88
82
101
81
78
92
84
81
72
107
100
72
106
94
82
108
79
84
88
107
108
103
102
97
98
101
96
79
76
107
71
106
98
98
85
80
94
71
91
88
85
101
77
105
95
70
73
107
90
82
83
102
100
95
93
96
73
90
93
75
76
85
104
94
96
81
109
106
73
70
93
96
70
81
82
81
99
108
92
86
85
108
76
97
84
80
99
100
80
93
98
97
101
82
72
81
105
104
79
89
72
105
88
89
101
70
97
95
84
89
100
100
86
90
97
101
76
72
94
109
104
94
87
105
80
105
89
76
76
79
83
91
83
98
102
84
96
84
92
83
91
93
96
85
109
91
84
73
100
98
89
83
88
84
106
106
93
107
98
93
82
101
79
98
73
102
71
103
80
100
98
109
88
79
80
89
100
96
77
92
91
84
81
94
98
88
101
94
108
103
75
94
99
98
93
109
108
80
97
76
109
102
76
85
74
96
92
80
97
80
98
96
99
102
72
86
92
74
79
108
108
86
101
85
71
103
77
75
74
77
78
73
71
97
81
99
83
87
101
82
86
84
109
84
106
89
93
75
71
73
73
100
79
88
103
84
70
76
85
94
108
88
94
104
70
86
97
71
81
77
82
95
73
91
101
96
81
85
97
77
75
101
97
87
75
108
81
97
103
104
103
101
98
103
103
104
105
92
108
97
101
73
100
95
106
70
91
100
72
81
106
100
72
71
74
75
73
90
99
86
91
84
90
80
99
82
83
72
73
100
91
81
103
76
73
107
83
93
78
80
102
70
98
105
94
87
81
81
88
107
78
82
74
87
79
87
89
106
89
90
102
94
109
87
79
94
75
89
91
95
102
92
93
92
89
82
100
108
88
105
90
103
74
77
76
74
84
106
106
95
82
101
72
89
82
76
92
94
90
98
89
77
75
88
91
82
93
96
91
103
94
108
101
102
109
87
73
92
108
81
79
88
85
105
87
85
99
86
79
84
92
79
94
86
78
108
105
88
80
100
99
72
107
72
83
102
73
80
88
95
92
100
96
70
74
102
82
83
87
87
88
89
75
78
98
107
78
80
103
71
74
92
84
86
104
103
98
106
109
80
83
96
78
108
85
88
73
76
98
107
78
101
79
85
71
105
84
83
108
76
84
103
97
98
70
97
76
95
98
72
90
79
80
97
89
103
85
87
91
99
104
100
97
106
84
103
86
79
70
71
102
105
98
71
79
77
96
106
95
98
109
88
102
77
80
90
93
94
106
83
87
75
81
87
71
84
87
80
106
103
70
95
70
101
103
88
92
92
76
105
98
86
90
92
99
98
107
82
75
98
98
99
102
93
104
100
88
93
103
88
107
99
85
74
92
74
100
105
94
73
104
93
76
85
80
81
89
95
80
106
106
81
78
95
78
79
92
90
77
92
93
94
79
90
75
80
102
102
89
99
95
107
101
87
85
94
96
82
70
82
96
97
106
85
102
97
97
74
84
89
77
81
73
98
72
108
104
106
94
91
77
77
102
106
90
86
77
105
90
76
92
109
108
96
76
93
105
102
87
71
73
106
80
92
107
85
93
105
100
88
100
95
82
72
100
70
97
99
93
78
70
90
83
94
90
87
87
72
81
73
102
108
91
109
94
109
91
79
87
105
94
90
70
100
70
92
72
87
104
77
108
85
107
74
89
95
82
77
75
104
100
95
88
75
98
105
80
84
96
87
108
76
79
70
102
105
82
96
82
85
104
77
83
86
98
92
96
86
94
99
81
108
83
91
93
75
77
103
77
89
91
78
87
74
87
95
91
78
102
101
106
80
105
75
105
81
99
105
96
101
77
88
95
100
94
83
99
75
78
78
102
76
92
75
109
99
78
83
70
91
82
82
73
73
99
70
102
102
86
73
87
75
86
85
72
80
84
79
100
77
107
95
82
101
83
95
96
72
100
74
78
96
102
96
70
78
94
87
74
101
91
75
87
103
106
73
97
96
95
104
95
80
93
98
97
100
72
90
79
95
88
77
75
109
97
78
97
72
73
85
78
103
98
88
95
83
105
101
84
108
101
102
93
76
92
70
99
98
74
91
90
81
84
108
77
82
108
101
83
96
101
105
89
74
106
79
72
78
106
104
104
100
103
88
77
89
95
91
97
109
107
82
98
87
94
78
109
95
79
77
75
84
107
98
107
72
100
105
89
96
79
75
109
96
85
71
71
95
88
98
98
71
97
105
94
79
87
100
82
84
74
101
97
102
96
89
109
103
88
94
106
81
86
86
84
104
103
106
75
70
93
75
102
86
93
77
78
107
102
102
109
106
77
109
102
92
95
78
94
73
78
85
99
106
88
80
76
85
100
90
82
94
79
86
78
100
102
89
91
98
109
83
92
95
103
94
81
96
71
88
94
100
78
94
93
89
77
98
102
77
70
103
75
95
94
105
89
87
102
98
76
99
90
99
81
108
73
96
98
73
79
79
70
82
95
74
71
87
77
91
96
82
75
96
79
98
98
95
87
105
83
91
89
88
70
103
100
90
75
90
106
79
72
93
77
90
91
89
82
108
79
108
108
82
84
85
84
93
74
78
104
73
102
74
90
104
105
87
75
79
85
77
72
81
82
71
99
75
80
74
76
105
77
76
74
95
81
95
76
105
88
70
109
71
79
71
88
99
91
98
80
101
95
89
92
73
93
80
89
71
87
102
95
76
85
84
104
95
81
94
87
103
106
96
86
91
102
100
74
97
92
97
99
107
72
93
70
94
88
102
85
85
95
93
91
79
104
108
80
100
70
97
107
93
97
84
89
92
75
70
81
90
107
83
98
96
74
73
79
80
100
73
98
101
82
101
86
88
102
83
81
93
86
97
106
93
92
89
72
109
93
87
100
78
81
105
79
86
75
94
102
96
106
106
101
87
78
97
74
89
78
74
84
82
82
86
108
77
93
80
90
99
77
79
75
85
102
106
81
76
84
76
100
108
88
81
88
107
84
95
103
80
82
104
72
98
98
87
79
87
74
72
95
87
92
70
102
71
98
95
105
74
77
82
95
85
70
93
82
98
84
88
107
95
96
78
85
79
109
100
101
106
85
90
80
105
95
107
70
109
85
104
94
88
109
73
106
107
102
78
107
74
102
83
96
101
97
83
108
80
93
86
93
70
100
70
108
73
89
78
90
109
78
100
72
78
70
89
106
95
94
70
76
100
98
73
85
82
109
96
91
77
80
85
104
75
71
83
100
96
105
72
106
104
103
92
79
92
78
105
73
71
96
74
100
73
95
89
91
94
108
100
76
71
95
104
77
73
96
81
94
84
94
97
79
95
102
95
100
74
70
81
86
101
82
101
83
79
94
92
81
105
109
80
103
100
98
80
76
72
93
106
76
70
89
96
104
73
76
78
86
96
86
106
105
71
109
109
74
79
79
73
95
99
74
92
75
109
89
100
93
96
80
107
94
103
74
86
109
109
72
72
94
79
93
92
99
71
72
106
72
90
90
73
109
76
73
71
96
98
83
109
105
97
87
95
74
70
89
90
95
93
76
86
106
93
93
78
83
75
101
109
93
71
95
108
92
108
107
106
70
76
74
83
103
99
75
99
90
74
109
101
85
87
70
79
84
99
84
105
97
109
82
102
90
109
109
105
99
99
79
92
94
97
100
93
96
70
91
74
78
85
87
70
95
85
87
76
108
90
75
76
85
84
80
100
94
94
93
73
98
82
95
70
87
83
90
83
98
91
89
98
92
70
80
102
86
70
79
77
88
73
106
104
104
72
79
96
97
89
79
75
74
71
105
87
73
88
84
94
72
96
99
107
70
109
86
93
89
90
86
73
74
103
80
100
73
81
71
105
92
78
91
88
82
76
102
72
85
98
73
86
71
71
98
94
107
73
73
74
88
81
108
73
74
86
95
105
105
87
79
96
78
85
81
95
106
71
102
73
74
96
99
82
105
86
94
75
108
100
107
101
91
75
96
84
70
77
93
87
71
98
89
101
95
78
81
89
99
74
97
81
96
73
72
99
84
79
71
81
96
101
90
96
91
72
83
107
88
75
107
85
99
106
83
79
95
105
98
102
108
99
95
104
71
79
105
73
83
72
77
105
95
93
80
80
87
96
101
86
103
98
105
108
101
71
78
78
95
94
93
93
93
84
103
96
72
81
78
83
107
75
71
107
97
74
91
104
88
100
102
76
108
97
103
99
102
97
106
99
94
109
106
94
87
84
75
94
90
87
94
105
86
87
78
85
95
85
108
78
92
98
78
93
86
96
101
107
93
81
94
78
93
70
81
75
105
83
89
109
86
89
107
92
76
108
106
74
96
86
90
98
101
99
100
82
93
79
82
83
106
77
108
78
74
74
89
81
75
80
73
75
75
87
107
92
75
89
75
96
84
109
71
85
91
104
97
75
97
78
79
84
70
94
82
108
79
87
100
83
86
77
85
104
105
89
79
96
77
96
73
72
84
91
81
103
76
71
78
71
91
77
76
101
104
101
73
79
84
86
96
103
104
73
100
93
88
95
95
105
97
96
75
105
87
86
105
79
98
82
96
87
98
109
105
88
89
80
89
88
95
88
70
109
76
92
93
74
97
90
91
102
96
82
106
91
101
72
71
78
101
71
98
106
86
76
102
74
79
73
73
103
74
99
86
86
79
79
81
102
107
104
98
96
72
76
70
88
87
79
107
75
99
104
99
73
96
91
90
77
76
95
75
99
93
97
95
106
99
88
72
82
87
74
102
79
91
95
71
86
84
85
100
79
70
108
90
84
71
107
102
89
95
81
101
85
78
97
83
80
87
96
106
109
99
97
109
98
81
91
77
77
100
105
100
97
77
98
80
106
76
98
74
77
73
81
80
100
79
74
80
73
91
95
94
72
89
91
72
89
89
80
80
86
72
91
97
106
105
108
101
83
101
74
94
90
105
70
100
73
87
86
103
84
104
94
102
98
97
106
87
101
91
87
95
88
79
90
76
90
81
89
81
97
84
97
74
72
71
72
97
91
79
92
96
82
109
75
72
92
97
93
89
70
79
94
91
109
97
96
101
104
101
81
75
73
104
105
109
86
99
87
102
91
70
100
91
106
82
72
77
77
75
75
104
99
102
71
84
74
70
100
99
93
102
100
101
94
74
81
89
100
70
99
93
80
100
94
95
85
80
91
93
103
78
86
90
101
103
88
98
81
71
70
80
104
106
74
93
85
97
104
76
107
95
84
108
83
105
106
94
106
78
78
79
95
107
85
72
84
74
107
92
106
107
70
106
74
75
99
92
73
93
104
79
99
71
98
100
92
78
80
102
83
100
72
109
79
97
96
106
103
71
71
92
109
107
101
106
98
97
104
90
96
71
80
106
107
93
102
85
90
98
96
104
101
91
80
109
87
88
103
79
94
95
100
96
81
78
89
72
81
99
79
79
82
86
80
92
92
105
102
94
70
78
107
107
98
74
80
80
79
104
90
73
74
98
73
81
86
108
99
76
70
73
89
74
105
90
80
87
94
107
91
81
71
72
87
89
82
81
71
94
77
90
97
70
75
94
88
79
109
101
99
77
90
83
95
76
98
75
72
97
79
100
94
92
78
107
93
96
108
88
77
79
92
101
100
71
72
93
72
73
102
74
90
108
101
98
95
109
79
82
73
91
98
99
93
80
74
100
102
74
97
104
106
98
74
90
83
84
106
94
105
105
104
106
70
73
78
77
75
109
88
78
97
77
77
88
106
109
92
109
104
101
89
80
86
104
96
72
86
77
80
82
91
93
100
77
105
84
94
84
73
108
93
87
89
94
81
84
99
106
107
77
77
106
83
81
105
97
109
79
102
81
91
71
70
78
73
84
97
93
76
72
91
90
85
70
89
72
85
102
74
97
97
100
107
104
87
74
75
77
97
103
89
74
75
71
83
76
96
94
80
84
73
104
88
70
72
82
90
81
74
102
70
80
75
82
76
97
103
99
109
92
78
73
81
94
103
106
72
71
104
83
85
88
101
108
79
105
79
108
98
98
71
100
78
104
107
88
71
99
80
108
109
70
73
108
108
94
87
87
86
102
98
100
88
82
79
100
90
99
106
82
91
107
77
89
84
105
97
94
108
95
109
70
92
106
109
104
108
82
100
86
86
98
78
95
80
98
87
73
96
76
104
94
75
76
83
93
95
83
108
106
75
109
83
88
107
81
104
70
95
89
94
79
102
92
91
103
103
72
94
74
73
107
82
71
100
84
90
78
95
85
109
102
99
93
77
106
88
83
74
109
71
109
76
91
88
106
89
97
92
100
100
80
85
82
79
94
109
76
98
102
84
81
84
105
70
86
81
101
101
104
84
109
91
100
87
89
106
108
98
79
87
101
72
90
100
95
72
90
102
92
74
100
102
101
80
92
84
89
79
104
104
88
70
86
99
103
95
81
86
84
107
72
80
76
75
88
102
75
108
75
86
92
75
104
102
82
97
93
99
103
72
99
91
106
87
97
94
102
107
100
75
72
71
77
95
89
84
98
84
86
84
82
95
92
100
99
106
96
72
87
100
85
100
87
109
71
72
109
86
96
75
88
88
89
84
84
77
108
76
73
92
79
72
109
88
100
94
108
99
102
77
95
87
102
82
82
102
71
104
75
106
71
88
104
79
103
90
103
72
85
75
92
95
80
87
79
105
99
88
100
89
102
71
79
108
73
75
95
70
106
88
82
74
89
82
105
71
74
74
70
105
99
80
91
70
79
74
77
75
106
99
105
93
94
103
78
84
77
86
75
92
88
88
106
79
103
96
109
96
98
84
95
89
88
75
95
79
101
80
105
100
89
70
101
109
103
77
92
77
99
84
88
90
88
79
107
71
105
83
99
90
102
87
93
102
98
109
87
84
90
90
98
85
96
82
104
91
97
96
106
73
83
93
77
96
108
93
70
99
71
106
92
109
80
100
101
90
106
86
99
75
70
103
104
94
87
95
72
102
100
80
71
86
109
96
83
84
98
84
90
91
72
94
102
105
78
82
96
83
71
102
76
94
96
88
100
96
109
100
79
93
103
94
107
86
89
77
88
71
83
89
87
72
86
79
92
94
97
82
95
99
91
83
97
92
82
92
85
97
107
106
100
82
107
106
87
80
78
109
78
73
70
94
94
88
95
76
99
109
96
107
90
105
84
80
82
108
82
76
99
90
73
80
104
108
88
107
74
107
102
104
101
82
109
83
102
85
84
93
93
84
77
94
87
100
107
107
88
104
73
72
95
84
103
71
82
107
86
74
84
81
71
101
76
107
78
80
103
85
109
99
105
84
78
91
80
102
104
100
90
71
71
87
80
94
85
95
98
71
85
86
77
105
90
101
107
98
75
76
74
90
105
78
103
94
84
97
92
78
91
92
88
81
91
106
102
103
91
103
97
80
101
88
86
75
86
103
82
73
106
71
102
83
82
85
72
104
71
80
100
84
108
107
106
70
71
72
106
89
80
95
101
102
93
79
86
87
101
84
106
102
83
90
107
95
70
105
107
100
95
74
71
72
74
88
89
102
73
106
75
99
77
80
105
89
70
108
86
77
101
84
106
107
104
109
74
88
78
90
88
97
76
76
77
74
102
76
84
105
90
104
105
93
98
74
106
89
104
87
85
109
103
102
82
95
79
87
90
85
74
103
104
94
77
81
94
90
73
70
84
72
106
81
101
79
71
76
90
70
83
71
107
71
83
99
82
105
90
73
83
78
73
72
74
109
99
87
91
81
104
103
79
89
88
101
101
105
83
87
104
72
87
109
72
99
105
98
91
99
103
74
85
75
85
78
70
93
86
102
107
85
78
71
71
109
86
109
84
91
104
98
92
88
75
96
93
106
105
100
108
100
71
83
73
92
76
73
76
78
70
87
102
95
90
101
108
109
98
89
71
85
108
86
103
108
80
105
89
98
82
88
70
84
105
100
94
81
95
104
93
80
107
98
109
80
107
90
108
71
101
80
88
71
96
99
72
78
102
95
108
93
93
95
96
75
95
92
109
98
70
76
88
91
108
102
71
70
74
85
81
77
95
75
86
81
84
104
103
76
85
75
95
89
74
80
106
73
95
99
100
88
81
108
78
71
98
92
93
107
95
102
75
109
88
105
97
75
103
78
93
96
109
101
105
96
105
92
76
86
74
106
94
105
103
73
86
84
93
83
85
77
98
103
88
81
71
75
106
94
83
84
97
80
93
108
74
80
82
91
71
106
104
81
72
102
90
99
104
98
85
100
81
102
90
70
106
96
102
89
72
80
102
99
107
70
94
104
107
83
92
92
106
94
81
71
92
88
80
97
100
106
82
94
96
85
105
107
72
73
75
98
83
83
89
82
76
97
73
75
75
80
96
104
78
96
84
85
73
109
82
107
75
98
107
106
75
97
93
103
99
102
95
94
76
85
76
98
98
73
91
98
106
87
102
102
97
105
99
83
87
87
88
106
100
83
74
80
73
76
103
82
98
94
106
87
74
96
103
106
88
78
87
104
81
95
70
79
77
82
76
80
70
93
97
102
79
94
85
71
90
77
94
99
93
73
107
106
109
74
89
99
99
104
108
99
78
82
80
90
106
81
72
92
103
78
71
86
85
81
109
80
95
100
76
74
93
103
84
82
94
93
107
93
93
103
81
75
108
71
92
88
70
88
79
88
74
92
80
75
93
102
98
106
94
105
80
105
104
88
91
109
100
104
77
79
85
75
87
73
96
86
73
97
91
109
72
100
77
94
77
77
103
99
107
94
82
92
73
109
96
100
97
107
87
83
103
106
76
92
78
101
92
71
88
84
89
74
85
103
106
108
94
91
76
74
82
99
72
85
72
89
101
76
70
77
96
94
105
85
96
74
102
94
71
91
73
89
102
102
84
98
96
78
90
101
75
82
93
90
82
109
101
91
78
86
105
98
109
97
75
105
83
102
87
84
89
96
84
106
100
81
94
100
96
108
91
92
100
107
85
106
103
90
87
99
99
91
84
84
105
108
108
101
77
78
96
105
107
103
80
108
98
83
99
94
73
70
79
80
79
101
98
84
79
93
88
74
100
92
101
104
97
71
93
106
108
99
98
82
76
97
103
74
81
92
107
87
91
108
87
88
85
96
91
104
83
103
78
80
98
103
77
105
103
74
78
103
98
70
109
90
100
76
103
90
88
84
93
72
94
86
107
85
85
108
82
77
98
86
106
76
100
94
100
92
74
77
103
93
79
77
73
71
108
98
97
92
87
99
82
81
83
84
75
86
88
73
109
76
100
108
108
103
74
71
90
100
98
89
104
108
97
106
78
97
91
97
85
105
78
81
107
89
89
79
94
92
93
103
101
108
90
79
76
88
101
76
94
87
96
92
72
75
98
100
91
81
81
91
98
81
94
70
77
73
104
109
78
79
76
94
82
102
91
89
73
80
84
92
74
109
91
79
96
107
74
75
90
103
95
78
74
83
70
98
75
96
97
80
81
86
93
70
108
105
95
72
101
78
71
86
100
95
107
107
88
91
95
78
81
82
92
100
83
71
70
109
84
87
107
94
80
73
73
104
90
102
95
70
78
75
86
92
93
101
105
70
104
92
83
79
73
75
104
76
102
79
71
80
79
93
94
73
99
105
71
82
77
93
106
90
101
79
98
77
100
102
76
90
88
78
101
77
105
73
84
94
91
105
80
105
101
83
99
87
73
78
79
77
86
109
104
76
74
73
98
97
107
83
84
94
88
104
86
96
75
101
103
74
98
85
98
90
94
105
105
82
108
87
98
90
90
87
105
108
92
90
95
96
72
99
74
81
79
74
77
88
101
95
97
88
98
92
91
105
74
78
88
89
82
85
79
88
76
74
70
106
77
81
88
90
109
79
109
109
86
101
106
101
72
78
82
80
93
109
93
80
81
75
105
108
100
88
94
94
75
79
78
102
99
71
93
87
96
86
109
89
109
89
101
87
92
106
91
74
73
73
87
86
74
103
99
82
90
103
72
70
70
77
98
88
71
107
70
96
81
73
90
109
92
77
87
71
105
100
107
86
79
72
74
106
86
107
94
85
107
74
100
71
70
101
72
80
81
70
76
107
82
88
93
105
74
98
87
107
95
76
99
92
103
105
109
78
85
70
98
84
73
90
90
81
83
78
74
103
81
87
86
81
74
106
77
77
81
79
93
108
109
81
81
109
104
77
88
73
71
81
80
95
90
103
90
107
77
89
88
75
102
79
100
107
80
72
107
73
103
93
82
91
100
108
71
79
75
91
76
75
76
91
103
71
79
96
85
79
100
70
89
77
97
102
71
95
93
97
78
101
77
92
85
94
100
92
109
99
81
108
103
92
100
109
96
106
88
102
98
108
71
76
93
78
90
99
102
95
105
102
70
89
91
107
70
79
109
106
105
74
80
80
92
100
86
71
89
97
77
72
82
106
80
92
76
100
81
87
73
105
76
78
107
78
104
83
86
100
79
94
109
98
97
102
72
99
75
88
84
84
93
95
92
106
85
85
71
81
102
89
73
87
93
90
70
98
78
75
100
87
73
95
89
77
83
86
85
81
107
73
97
76
98
75
88
82
94
96
84
92
89
98
109
88
85
81
94
94
99
75
80
95
93
70
83
106
96
97
90
87
70
81
78
95
98
75
102
83
101
100
86
100
105
97
93
75
109
77
83
91
88
109
83
100
81
90
85
97
94
95
79
83
99
97
77
87
86
87
79
85
105
74
82
107
71
95
106
74
107
83
86
96
77
87
84
109
78
84
86
89
86
103
77
102
76
96
86
82
70
72
106
89
97
74
74
104
75
76
90
108
103
93
94
76
74
81
99
108
91
75
71
100
80
106
75
73
87
79
79
90
73
94
103
85
94
75
93
99
77
95
72
97
99
107
91
81
78
100
72
96
82
104
87
81
108
80
81
74
109
78
98
70
105
80
103
99
104
70
100
108
77
73
97
89
77
92
78
94
74
96
108
97
105
106
94
104
89
104
80
75
86
92
79
77
76
79
105
81
71
82
78
83
106
97
87
108
94
97
78
74
94
76
86
96
106
106
84
89
72
82
71
91
81
81
100
97
99
99
93
81
74
72
75
96
101
72
73
75
79
106
99
79
106
104
103
91
107
96
106
76
90
95
102
89
80
95
75
81
94
99
84
74
91
103
91
99
86
85
104
92
77
78
85
84
94
94
93
107
100
83
87
97
101
103
86
71
97
99
83
101
76
71
77
99
96
72
87
76
101
81
106
88
75
85
93
97
90
84
83
88
87
92
108
73
97
105
78
92
77
104
109
85
95
72
104
70
90
83
102
108
98
100
81
79
95
80
106
86
85
74
70
83
90
82
103
90
80
70
94
96
76
84
87
73
77
70
101
98
89
87
89
105
84
109
109
106
91
71
77
75
104
73
96
106
95
78
83
93
72
101
78
107
109
71
84
97
71
72
85
95
84
108
94
92
109
76
108
95
85
73
93
80
91
88
96
103
108
71
101
91
106
71
95
85
106
82
81
85
101
103
79
77
101
107
79
78
99
106
96
72
102
103
74
102
78
88
78
88
105
86
87
82
102
99
96
70
89
109
80
94
95
106
92
92
90
92
100
77
79
95
105
99
93
96
100
99
89
97
99
79
104
106
80
108
84
82
106
102
107
95
80
82
92
98
75
108
100
86
75
99
80
74
85
82
100
77
92
104
99
82
94
106
72
85
104
80
84
76
76
93
96
81
97
98
70
71
92
94
75
106
102
87
88
100
70
108
89
70
81
94
101
92
79
99
104
76
95
93
77
80
78
91
96
106
108
95
99
72
71
104
79
80
100
88
93
101
91
73
101
82
91
107
71
86
78
73
81
97
94
101
97
95
80
97
91
99
72
87
100
101
101
99
103
71
70
80
104
84
101
80
96
89
75
105
73
81
108
108
99
100
101
95
86
96
107
77
80
91
101
108
105
71
85
96
93
79
91
70
89
89
107
107
98
101
72
94
75
93
80
84
78
76
90
107
109
108
78
80
104
75
92
85
97
70
79
109
95
97
99
98
88
77
77
81
75
107
106
84
101
89
83
73
73
90
79
73
109
82
73
75
99
83
100
73
78
73
100
108
70
109
87
100
101
96
107
82
98
94
106
98
86
109
92
91
86
70
99
81
96
75
77
108
105
106
109
98
70
73
99
91
81
106
109
100
87
73
102
70
80
92
71
87
79
90
83
90
75
87
103
75
108
95
105
77
82
80
80
95
90
94
100
100
82
73
72
74
96
105
109
102
101
85
81
85
104
104
80
86
81
109
105
71
106
77
109
109
77
71
83
80
106
87
72
85
103
97
93
70
102
95
89
96
89
90
96
99
89
102
84
103
71
97
108
85
106
78
90
76
83
108
97
77
85
92
70
104
106
83
70
88
81
92
97
93
108
91
101
97
81
85
70
86
79
83
109
85
100
89
87
97
108
74
71
70
93
70
78
92
105
95
74
81
99
104
77
85
109
95
79
79
90
100
86
97
71
98
94
71
88
103
100
78
104
71
103
99
80
101
105
73
100
84
105
79
75
90
93
97
70
78
103
93
90
100
109
81
73
103
70
92
85
95
89
82
71
107
80
100
71
72
101
79
101
106
92
99
72
106
74
95
85
90
100
84
74
101
106
103
83
106
109
74
108
106
79
77
72
103
90
97
98
72
85
70
107
98
82
94
91
98
75
73
99
96
78
82
106
78
70
105
102
106
100
107
85
103
77
87
77
75
102
98
89
84
94
78
93
84
91
94
84
79
96
93
87
91
93
96
97
88
95
89
81
79
82
101
104
79
92
96
108
70
107
80
99
77
90
95
92
71
88
77
107
76
98
85
83
89
106
70
105
106
79
94
86
74
79
90
93
82
74
73
94
96
98
89
74
74
96
89
72
100
72
106
71
79
71
88
101
90
100
77
72
76
85
79
75
83
108
105
99
87
82
88
74
99
105
87
108
109
88
93
104
75
75
76
90
72
106
78
86
103
99
83
95
72
82
86
105
73
80
73
83
103
89
78
106
109
82
88
82
83
91
97
86
83
98
109
98
96
88
78
94
72
104
82
78
76
101
82
104
77
91
92
101
105
81
99
84
94
109
86
100
78
72
102
104
92
76
76
88
70
83
74
101
84
106
104
77
96
78
91
80
78
101
81
105
86
105
88
81
103
104
79
97
78
79
109
103
95
81
105
84
76
82
97
83
84
97
87
75
77
93
89
72
77
103
88
95
93
73
91
73
79
101
93
99
98
97
108
107
76
81
84
93
79
86
75
95
71
78
86
81
75
75
76
90
105
72
105
87
95
82
102
100
104
75
79
96
99
93
77
108
98
101
93
109
97
94
88
74
94
104
109
79
89
79
92
92
91
89
76
104
108
75
72
82
95
107
109
97
81
75
79
98
82
108
84
98
98
90
81
108
80
103
75
101
87
106
89
95
107
81
97
107
91
92
72
98
70
108
94
86
106
84
105
76
91
95
89
93
106
106
76
85
102
75
106
107
95
99
100
75
96
72
80
96
92
77
80
86
109
70
108
94
105
95
101
99
102
109
84
94
96
87
90
101
88
93
73
81
78
82
99
87
99
70
90
71
72
95
71
100
108
74
78
75
100
76
90
87
99
70
85
84
100
72
99
83
77
76
72
94
103
95
95
93
99
84
101
95
79
74
93
76
73
86
92
99
108
76
104
96
73
82
101
73
95
93
72
80
78
89
88
99
72
91
73
75
105
97
74
90
73
84
106
88
79
92
79
103
88
77
95
94
96
82
98
83
89
103
103
85
98
107
79
80
97
93
95
82
76
101
106
86
84
79
102
87
108
76
77
87
105
98
71
80
74
77
78
75
73
77
90
87
82
90
70
101
91
77
83
106
101
97
107
108
83
98
73
96
96
77
79
107
70
72
96
95
100
99
87
97
88
71
87
105
85
102
77
106
86
84
107
90
108
84
103
108
100
78
83
92
85
87
101
106
104
97
82
76
89
85
103
85
101
70
72
74
92
96
77
78
97
97
81
76
80
94
84
77
103
81
100
91
72
98
96
70
86
92
85
84
86
98
108
86
73
81
100
105
87
71
108
82
109
92
84
94
97
88
108
81
102
93
100
85
92
79
102
101
73
105
81
90
102
90
104
102
91
96
99
95
77
99
91
102
97
85
91
89
81
89
94
102
86
82
92
105
70
109
97
104
105
89
71
93
71
85
82
99
108
92
108
100
70
93
75
74
78
109
104
85
85
73
74
93
82
86
98
105
89
100
79
87
77
83
109
92
89
100
74
86
100
91
81
104
83
108
107
86
100
108
90
82
72
104
95
102
103
92
87
91
83
109
82
73
86
103
93
72
109
79
88
95
74
80
89
75
76
104
98
90
106
88
73
95
96
87
87
81
72
105
76
72
108
103
89
80
75
78
109
89
99
108
100
93
78
104
108
108
96
74
98
101
80
99
85
78
93
86
81
93
75
102
80
96
93
82
91
82
109
87
79
71
98
77
86
74
82
93
82
108
104
81
82
80
79
84
94
85
88
91
93
108
80
108
74
82
70
70
90
96
99
98
81
73
91
97
78
84
99
94
92
107
84
85
90
91
71
107
85
101
97
80
84
108
72
107
108
72
102
76
109
82
102
104
101
73
85
104
108
84
76
107
72
97
83
94
74
70
71
89
96
102
79
100
84
70
107
105
93
96
86
108
100
103
94
96
82
109
73
75
96
98
99
109
87
70
93
93
106
96
88
77
88
71
98
103
78
90
88
104
76
91
77
76
71
89
106
106
88
78
71
81
90
86
88
75
89
89
91
97
98
99
81
96
93
74
76
74
106
103
88
95
107
81
92
78
78
86
99
79
79
100
102
83
107
87
100
94
103
107
109
99
82
101
99
72
72
77
82
108
81
79
90
95
105
74
107
81
81
103
80
102
71
70
78
71
97
86
103
108
79
100
98
73
106
95
102
87
71
89
95
109
105
72
87
95
78
93
73
85
80
100
106
87
96
102
89
79
70
76
80
103
91
108
99
102
98
97
73
101
108
70
105
86
92
91
95
103
106
107
86
75
108
93
104
106
106
90
76
75
80
86
80
87
73
107
103
87
82
98
100
96
78
91
104
78
96
104
97
103
85
92
75
106
75
73
99
96
93
75
90
105
97
71
102
90
107
73
79
102
83
76
89
106
100
90
85
109
87
78
109
96
88
96
104
107
102
98
106
88
105
97
96
75
95
94
83
106
104
109
75
98
83
101
101
98
96
73
72
76
71
71
100
81
97
87
92
100
102
78
86
82
86
76
105
89
100
90
94
102
88
88
98
91
100
102
91
105
89
105
96
106
90
73
78
99
105
81
80
71
73
94
87
103
77
91
83
73
71
100
104
87
83
90
93
90
84
79
73
94
103
90
94
71
79
101
74
76
81
85
84
76
89
106
84
78
84
88
102
101
72
108
97
84
96
107
107
78
101
104
103
73
82
100
97
108
86
107
97
70
79
92
103
105
77
73
94
80
100
89
91
84
79
82
88
85
105
98
76
95
85
104
86
75
74
79
106
104
71
99
91
105
109
94
89
72
100
77
92
107
70
95
90
79
108
94
70
90
109
97
90
94
102
96
70
74
79
90
105
107
106
76
94
91
89
107
75
104
96
100
79
81
97
97
106
85
95
79
74
108
101
102
83
97
71
97
102
89
105
78
109
101
95
79
93
78
85
75
109
98
88
71
102
97
76
97
76
86
96
94
93
74
71
98
87
107
80
80
78
77
96
107
70
103
102
101
86
106
79
101
70
109
108
86
98
100
97
101
96
74
87
83
78
93
76
85
103
89
81
88
80
104
84
73
85
80
103
100
74
85
105
82
95
105
100
73
75
89
95
95
100
98
100
102
86
84
108
79
99
109
74
80
89
105
93
71
74
97
106
76
96
73
90
82
71
78
88
87
96
96
85
109
75
77
95
79
108
87
80
87
106
94
75
103
92
96
84
87
108
72
72
103
81
85
82
77
95
109
72
89
106
90
77
87
91
107
89
109
90
70
94
78
100
101
100
86
103
94
79
95
76
79
71
83
84
74
81
83
71
77
100
95
88
94
86
103
101
93
80
90
101
98
95
84
91
72
77
85
90
98
72
80
89
94
104
105
82
103
87
75
94
71
92
105
83
92
96
91
96
82
77
108
103
82
76
89
108
82
94
92
70
108
101
74
84
91
100
105
82
108
76
71
92
106
80
95
74
92
75
93
76
106
97
92
96
94
108
85
74
80
72
83
83
85
72
77
109
104
90
83
77
81
88
109
74
86
81
89
70
79
104
107
83
94
91
97
79
71
86
87
99
92
89
89
96
108
88
80
91
85
73
95
91
71
83
102
88
75
85
70
102
84
77
94
83
77
106
77
109
91
108
73
87
77
74
87
70
73
92
100
95
80
107
100
107
85
77
82
93
98
94
103
99
76
91
93
92
79
96
94
74
85
93
105
71
83
108
102
84
93
86
73
72
99
95
108
94
91
79
72
90
98
82
92
77
93
106
74
79
101
76
109
101
98
89
88
91
87
101
107
75
94
77
79
103
93
76
85
75
98
79
73
79
83
91
77
83
89
99
99
99
70
70
74
70
108
79
70
98
104
79
89
106
103
105
86
91
87
76
72
91
89
71
94
82
94
71
97
102
80
76
97
98
74
93
85
102
82
105
74
101
102
73
103
106
93
74
102
77
88
78
108
85
104
77
93
102
74
88
82
101
80
103
100
97
105
107
102
77
85
70
102
99
105
82
76
99
90
96
86
76
96
82
75
82
88
83
86
89
87
93
78
81
75
82
92
90
76
71
108
98
100
95
104
109
98
92
73
84
101
107
87
81
95
72
91
74
104
95
99
92
93
94
70
97
97
103
81
101
74
106
81
86
79
74
81
98
89
94
70
70
103
83
105
108
70
80
85
100
88
83
74
70
85
98
106
70
80
109
82
106
92
74
91
80
78
96
97
91
84
88
99
104
94
72
108
108
92
99
73
80
97
86
77
80
86
75
74
80
98
91
96
80
89
80
98
73
98
81
103
104
101
106
71
107
84
107
80
74
90
79
71
96
90
96
74
81
73
96
109
70
70
91
107
87
89
92
88
81
98
86
77
80
75
84
108
78
89
106
108
85
78
85
95
73
83
96
98
74
77
105
100
97
93
100
75
72
84
87
100
71
102
101
105
92
95
78
96
90
83
102
73
86
106
85
80
78
77
72
108
90
90
103
95
80
94
102
80
75
75
103
85
83
103
71
76
83
71
72
92
95
76
104
79
100
102
104
75
93
94
87
90
90
88
96
94
76
73
73
89
87
85
101
84
71
84
77
70
70
101
98
88
84
92
95
86
72
89
84
88
94
97
93
98
106
80
101
73
100
94
77
79
109
98
106
105
88
93
94
95
108
89
85
91
81
73
90
94
73
90
83
87
74
99
107
101
81
97
78
104
81
94
98
74
100
107
101
76
81
91
81
70
94
98
95
79
72
109
75
86
73
108
108
88
89
86
79
75
88
83
76
82
98
72
73
90
101
103
109
100
71
93
96
77
76
88
89
74
78
80
105
96
85
92
86
82
98
97
82
76
94
95
109
72
80
101
72
79
95
70
92
75
101
83
106
74
109
99
100
85
78
88
75
74
87
76
107
94
78
108
92
87
92
100
107
90
107
91
80
80
91
89
105
79
81
94
79
102
105
84
94
80
78
79
99
85
71
108
98
85
84
104
94
70
105
106
76
88
90
76
74
87
105
78
99
81
83
92
70
73
73
90
89
83
70
84
72
72
108
106
107
84
101
92
94
87
94
74
74
105
102
72
76
74
72
80
76
73
84
88
97
74
93
85
76
101
79
96
82
77
71
72
102
102
72
72
102
75
107
83
100
95
70
93
88
90
72
76
99
70
84
87
71
83
84
93
94
79
89
106
105
106
72
93
107
98
78
93
108
74
87
85
89
88
75
77
84
71
83
108
104
98
90
99
105
74
103
99
81
106
91
82
85
72
86
98
106
79
86
106
82
91
107
105
75
93
92
72
82
72
102
95
99
91
87
107
85
96
78
71
92
91
93
104
102
71
97
93
91
102
74
95
70
80
94
86
81
94
82
76
88
95
76
78
109
74
83
79
92
85
80
95
95
93
89
109
101
87
82
88
70
71
79
101
106
87
89
100
91
75
109
99
72
82
107
103
84
87
100
72
86
80
109
109
106
79
76
88
104
104
97
75
83
82
95
99
109
105
75
107
81
83
108
76
105
82
91
84
97
81
85
109
100
99
94
80
85
72
81
73
88
89
77
85
107
94
98
89
103
102
109
76
107
87
104
96
99
95
101
85
100
106
76
103
100
76
75
73
72
97
102
73
94
107
71
70
92
101
87
87
80
102
78
70
89
95
88
102
78
80
89
88
86
88
98
84
95
76
107
70
99
106
107
103
88
94
79
86
71
93
95
102
80
72
103
74
99
75
85
70
106
103
78
95
93
76
70
70
102
83
103
89
71
83
105
91
104
106
76
78
93
103
90
109
87
78
88
86
98
107
94
80
71
106
85
106
99
94
104
93
80
89
95
106
82
100
88
78
84
103
94
101
108
75
103
77
85
78
88
101
108
87
108
93
93
74
101
95
70
102
98
71
84
101
89
80
109
84
95
95
70
108
94
83
86
88
102
77
82
97
88
108
74
78
102
100
108
103
103
80
88
107
98
102
84
81
96
83
73
108
95
86
93
99
108
73
106
80
97
77
102
94
103
77
77
97
109
102
93
97
90
85
88
71
104
97
87
107
82
83
100
109
87
92
105
106
103
102
87
73
109
101
106
87
102
79
91
96
97
97
78
79
79
76
70
88
101
81
101
92
104
81
96
108
80
72
97
74
80
98
71
100
100
102
84
74
100
82
78
83
89
87
88
90
94
103
89
71
73
101
70
83
97
92
99
84
105
82
71
74
86
77
73
97
78
103
70
80
98
94
109
89
102
88
100
91
70
93
75
108
75
85
105
106
102
84
79
92
91
98
106
84
106
88
77
96
75
80
94
81
72
84
87
108
71
98
80
72
103
79
75
86
91
97
73
79
78
105
91
107
102
81
90
102
107
98
83
104
106
74
94
77
85
92
86
98
101
79
102
97
83
84
97
79
83
74
99
84
74
84
78
74
89
70
96
97
74
76
83
107
107
84
108
76
105
92
105
100
103
95
93
104
103
76
77
77
80
71
80
103
105
93
106
105
109
74
90
109
103
101
93
79
87
86
82
101
102
70
88
90
70
80
76
99
102
71
104
97
77
81
104
89
76
106
102
72
89
107
89
98
81
77
89
85
70
97
87
105
81
105
75
76
82
84
85
91
94
78
104
75
72
78
75
73
83
85
82
102
102
84
77
96
97
100
80
93
79
107
75
97
93
102
98
73
82
82
79
96
95
96
102
99
81
89
82
81
101
109
86
77
75
106
95
70
86
91
104
78
107
103
109
90
80
92
101
90
95
99
82
106
74
109
90
72
73
71
83
71
98
82
74
83
81
71
93
93
73
81
82
98
97
74
103
71
90
75
84
95
72
78
94
105
87
102
93
83
96
90
80
84
92
101
79
105
104
98
97
94
73
94
71
79
82
94
104
95
84
91
95
88
70
75
75
84
101
106
93
109
85
89
71
96
88
85
83
87
71
107
73
78
87
83
77
78
78
82
80
81
78
77
78
77
104
90
97
93
101
89
84
99
105
76
74
107
73
99
103
84
70
75
71
104
83
71
94
95
100
95
80
102
71
104
90
70
71
92
72
98
94
100
88
88
99
91
71
108
101
93
75
106
87
80
97
75
84
106
72
105
100
107
94
78
96
84
81
106
74
80
88
92
89
74
91
99
92
79
104
76
92
102
80
103
71
101
105
102
106
93
77
70
79
80
75
105
72
98
109
106
98
95
81
74
101
99
84
83
83
88
84
84
71
91
92
76
89
103
86
90
79
71
84
76
85
78
79
102
72
81
84
70
95
79
100
102
91
104
98
97
105
84
107
90
78
85
81
73
90
72
72
79
88
72
109
92
93
84
99
87
87
81
104
78
96
75
71
70
91
88
71
93
70
101
109
86
104
101
93
86
109
95
71
77
104
80
80
78
104
98
85
98
102
99
103
89
102
88
100
107
76
83
90
87
73
82
98
82
78
99
98
74
104
85
91
91
93
104
108
74
77
88
103
72
101
94
91
97
72
96
105
77
103
97
91
71
75
108
74
92
79
109
79
78
75
97
108
90
87
103
107
79
101
103
95
81
107
98
107
100
87
81
96
108
91
91
98
92
83
106
109
94
84
109
76
83
72
99
74
99
95
70
109
102
88
78
71
100
96
104
71
91
74
86
95
103
81
96
87
87
74
100
83
102
100
74
104
86
108
99
109
108
101
92
96
88
101
101
78
75
94
79
86
94
90
108
80
96
80
105
106
88
71
106
84
108
72
85
101
82
82
82
109
93
96
97
77
83
101
84
107
100
98
103
106
77
79
85
82
77
81
109
108
95
83
85
104
106
96
77
74
94
79
103
99
104
80
77
108
79
103
76
88
80
87
96
90
95
88
73
101
71
107
92
99
100
77
76
104
95
75
74
79
81
86
82
101
99
79
105
101
70
108
84
76
71
107
75
102
109
102
102
89
70
95
94
104
102
102
87
98
82
82
84
93
100
85
108
108
72
90
100
97
86
91
77
103
96
78
79
71
95
72
94
109
106
93
108
100
71
78
71
72
108
108
92
82
71
76
108
89
101
84
70
86
81
101
70
81
77
81
77
91
85
71
96
107
106
76
85
109
77
92
91
104
101
98
81
103
90
76
98
82
98
107
80
86
93
81
79
90
84
84
99
99
103
82
77
83
79
101
73
101
73
89
99
92
108
75
100
108
109
101
87
73
97
87
81
79
98
88
104
106
70
102
99
71
93
74
107
91
97
79
81
74
106
76
72
74
83
104
75
90
103
94
98
85
97
81
89
75
90
74
98
105
107
103
109
104
86
94
100
92
88
107
100
78
82
70
97
84
80
81
104
71
105
104
107
93
73
97
97
81
99
70
84
104
107
81
95
84
91
95
104
78
100
96
98
88
103
79
94
97
84
93
99
76
84
98
83
107
74
94
96
88
71
109
71
93
94
82
99
77
92
93
78
106
108
87
100
103
75
77
72
105
103
76
90
74
101
93
97
94
108
89
78
98
100
102
89
81
107
106
73
105
105
103
86
94
98
72
88
93
108
83
93
76
97
87
87
80
103
104
101
94
95
73
76
86
99
90
92
101
75
98
103
98
73
94
72
83
84
98
97
81
90
79
72
74
90
78
90
77
97
100
103
91
90
79
89
84
83
96
96
79
86
89
103
71
94
97
93
82
75
86
92
99
95
90
86
75
89
97
97
91
106
81
104
109
95
99
77
84
78
105
99
97
100
81
81
87
102
97
84
105
95
75
91
75
97
75
73
103
71
70
86
73
99
94
95
100
76
100
72
78
106
101
95
73
77
79
83
84
106
109
93
90
103
98
77
81
82
107
72
78
84
104
96
79
100
108
101
104
98
90
99
90
88
107
108
97
72
77
71
77
74
102
72
84
84
74
107
109
88
97
75
80
72
77
72
101
109
98
73
90
72
102
101
88
104
91
104
96
102
99
92
98
70
100
78
103
79
76
75
96
75
94
83
85
75
109
93
83
93
73
107
104
88
88
94
80
106
79
85
94
71
104
91
75
101
70
95
82
102
71
103
104
77
98
95
102
100
89
71
105
78
80
99
99
81
79
87
107
86
100
74
75
83
77
98
72
96
93
105
71
74
108
95
86
93
76
80
89
77
97
78
79
102
72
106
92
74
84
95
95
91
109
96
70
98
74
108
73
95
88
78
85
90
83
106
99
106
92
108
104
92
76
75
77
94
105
87
73
84
102
79
94
98
96
70
97
107
86
94
86
106
80
93
108
104
83
104
93
109
75
77
73
106
107
85
91
94
106
74
108
87
102
109
70
107
101
108
108
72
97
106
104
105
76
87
100
98
93
73
102
94
89
75
78
86
70
77
97
77
99
92
99
82
92
75
105
86
93
74
85
95
101
95
77
84
93
82
93
89
88
86
108
93
77
100
85
74
91
81
104
85
102
108
72
95
79
81
93
99
104
97
85
97
79
93
94
90
82
80
88
101
101
101
89
89
104
90
88
76
93
99
78
108
96
82
98
92
96
101
84
97
77
104
76
101
98
101
92
92
100
73
75
78
75
97
92
108
90
76
70
77
90
107
101
75
76
70
81
82
78
97
109
89
100
88
106
109
91
94
77
74
91
76
95
107
99
87
84
92
98
83
95
93
91
95
83
106
103
97
92
73
90
100
79
84
71
87
88
95
93
80
99
84
70
73
77
101
77
89
107
106
96
78
91
108
87
73
98
81
100
91
109
73
83
103
108
87
92
87
100
93
86
100
93
81
94
88
75
100
88
78
80
102
85
109
74
82
87
105
72
71
105
74
91
89
90
105
83
85
107
72
72
77
70
73
106
99
90
82
99
104
109
79
91
87
81
72
84
94
90
101
79
77
78
72
102
83
102
106
108
101
109
104
82
87
86
71
108
96
99
94
83
97
107
75
100
95
75
88
105
89
105
87
78
92
109
100
86
93
96
98
103
70
81
89
84
93
86
79
74
97
104
100
77
71
83
90
99
84
100
100
105
107
107
78
77
105
83
70
76
96
96
90
84
89
72
90
109
93
77
79
100
70
98
93
104
105
108
108
80
95
83
85
92
92
81
107
100
79
98
95
70
76
85
97
108
102
74
76
84
81
76
106
106
71
73
95
75
104
71
98
107
88
89
81
90
84
83
77
75
77
98
102
85
80
72
104
85
109
86
94
107
103
98
77
84
91
76
77
72
100
84
99
101
86
70
90
76
98
96
84
82
82
91
76
82
102
72
109
80
109
85
72
73
80
104
82
74
91
100
108
86
109
82
88
84
91
89
88
72
88
104
96
81
87
76
71
91
108
94
98
78
88
78
83
102
75
94
104
92
95
88
78
101
99
73
103
90
93
90
90
104
84
77
98
104
92
109
73
89
83
105
95
109
76
82
85
98
98
107
87
82
79
73
106
93
109
82
82
93
85
91
96
106
103
109
89
87
105
71
106
93
107
106
74
78
74
73
81
101
91
79
104
84
83
86
81
78
108
109
81
94
91
73
82
104
96
96
102
103
78
74
80
78
91
104
109
82
106
74
76
87
95
107
90
75
75
88
81
96
105
81
106
102
79
95
80
80
73
71
71
78
74
85
109
107
109
93
104
88
76
77
104
72
94
103
86
93
94
78
93
75
81
79
95
84
81
75
99
92
72
89
86
101
78
97
88
86
71
102
73
71
95
107
100
73
96
74
82
92
109
105
82
88
95
79
87
95
80
109
75
99
94
71
99
77
107
93
106
94
90
101
106
89
100
108
80
88
108
101
104
86
104
97
98
77
90
88
75
89
109
94
78
109
91
89
108
100
94
74
74
107
102
90
75
77
91
95
77
70
92
72
80
109
95
109
76
99
81
90
106
81
104
85
94
74
79
102
75
100
106
95
96
109
107
84
74
83
76
101
74
100
102
74
96
87
105
78
88
99
85
102
76
95
89
108
106
98
106
71
88
76
86
101
77
108
80
100
81
107
87
94
87
80
91
83
82
78
72
107
103
75
78
108
90
83
87
104
107
85
75
83
97
107
73
108
79
72
95
98
87
93
91
73
85
100
91
76
109
73
82
101
104
77
76
107
98
93
84
76
79
99
75
107
88
91
92
75
105
73
86
77
93
73
90
102
99
70
109
77
98
80
80
83
83
96
78
76
103
109
78
93
73
92
74
87
100
99
79
91
96
71
86
93
105
71
74
78
105
96
99
109
80
106
106
86
89
91
78
102
78
91
70
70
70
80
96
94
102
99
74
91
86
90
103
99
85
95
84
89
80
73
75
85
79
81
104
70
96
72
106
106
89
95
92
85
72
95
93
96
77
75
100
100
90
74
88
79
73
81
80
86
103
73
94
76
72
76
73
106
83
102
99
88
71
98
72
74
78
90
88
70
73
91
79
85
84
104
83
72
92
102
85
102
70
72
100
107
81
83
70
91
71
77
105
87
72
106
105
86
104
87
82
80
106
83
105
95
77
90
86
79
78
84
109
80
93
102
101
82
76
87
95
104
78
109
83
95
93
80
80
81
87
104
92
109
81
75
99
90
76
90
98
76
95
92
78
93
85
91
88
104
105
70
84
74
87
86
91
73
109
101
94
90
90
75
99
102
101
83
77
85
81
78
95
78
72
103
89
108
93
95
94
77
95
73
77
104
99
80
79
85
96
79
104
82
89
82
82
106
103
100
70
96
101
72
93
93
96
99
70
86
78
74
72
74
78
72
74
83
73
75
96
106
103
72
97
88
109
91
80
74
77
92
88
108
71
95
107
106
95
98
108
107
79
100
99
95
78
100
82
82
105
95
70
89
73
103
104
101
109
88
100
70
97
100
89
105
103
82
98
109
102
91
93
106
72
85
74
99
72
107
102
78
99
101
105
98
70
99
108
104
89
104
95
77
91
93
82
79
70
99
90
77
99
85
103
92
97
102
76
79
99
95
102
103
88
75
96
100
103
78
94
98
105
75
105
103
81
93
99
84
106
89
107
91
105
74
107
96
83
109
88
90
103
102
106
76
103
82
109
79
83
95
86
83
94
105
90
94
85
102
100
91
94
108
101
86
85
73
73
79
93
91
103
101
77
82
73
70
80
91
70
92
90
86
100
90
96
106
81
71
95
87
84
98
103
84
104
103
97
106
73
80
103
97
89
88
92
74
93
84
76
84
84
83
76
99
88
104
101
94
72
101
77
71
84
97
87
73
91
85
84
77
106
84
74
109
94
106
76
77
108
87
74
87
70
75
106
94
105
84
87
101
101
85
81
96
101
106
77
99
87
89
95
90
70
91
85
97
86
100
85
93
79
86
74
106
94
77
75
103
88
87
101
71
73
106
82
97
85
90
90
90
76
75
97
97
99
84
104
76
88
85
104
105
78
98
109
87
82
72
96
70
93
88
95
76
76
74
73
98
100
107
108
102
74
90
98
98
90
104
84
109
77
70
77
97
97
83
82
93
84
101
95
107
96
80
102
84
78
77
85
91
100
93
101
88
104
103
82
70
98
86
72
86
85
70
98
93
79
80
81
100
106
92
107
95
81
70
81
72
78
77
94
100
83
104
85
86
72
97
82
99
93
70
84
102
72
94
81
93
97
98
74
84
84
100
81
96
87
107
89
78
101
79
100
101
106
91
82
106
96
89
105
82
105
106
80
77
70
85
105
73
103
96
86
85
92
77
75
103
100
95
100
72
99
101
104
70
89
86
86
82
89
94
79
108
80
88
77
83
87
108
98
89
73
99
84
103
73
97
96
77
86
73
76
108
88
79
73
96
88
74
105
80
91
105
101
71
96
88
90
104
98
83
109
86
87
98
93
82
90
85
88
88
86
74
88
108
100
109
71
81
87
95
97
90
86
82
74
77
97
75
80
92
72
97
97
94
73
94
96
70
80
76
76
82
83
105
97
79
103
102
99
106
77
108
96
90
81
80
86
84
109
73
94
95
105
87
79
82
70
86
109
99
75
83
83
106
79
103
86
76
96
74
92
84
108
82
78
103
93
83
90
70
90
81
92
90
93
84
109
75
79
91
84
89
82
109
85
71
72
75
79
77
88
98
75
101
90
104
81
104
75
101
109
98
90
92
90
75
75
89
109
71
100
109
86
97
95
96
98
75
80
78
109
73
95
94
94
103
87
95
75
87
96
91
87
88
99
97
81
91
101
109
79
80
101
83
74
73
80
92
75
101
101
88
95
96
101
109
103
88
101
86
107
91
71
80
80
104
70
105
104
83
97
81
97
77
105
94
96
75
94
90
79
93
87
88
85
98
81
88
77
106
83
86
90
76
87
98
105
98
90
75
87
89
72
85
101
85
82
101
89
93
73
106
87
75
96
103
71
103
85
86
81
108
88
79
87
98
71
105
89
102
105
104
71
71
73
80
90
82
94
73
84
73
81
99
106
103
78
92
102
87
95
104
98
109
77
96
98
93
104
94
81
92
97
72
87
92
94
107
89
75
70
89
73
77
70
86
80
81
75
80
73
90
104
93
104
79
82
82
99
93
98
81
72
76
75
82
87
79
102
93
105
96
98
94
97
91
71
74
81
89
85
106
105
88
72
94
84
89
103
108
107
83
77
73
102
78
71
70
71
106
88
79
106
89
82
88
91
106
85
104
70
103
93
99
84
74
102
99
77
83
75
103
105
109
97
70
83
90
85
109
80
92
109
88
84
94
109
78
71
106
80
104
86
92
74
107
76
70
100
83
91
101
80
106
85
92
93
106
80
96
101
103
106
101
109
97
96
103
100
88
77
82
104
105
82
70
86
81
89
101
96
87
94
95
100
70
96
97
90
106
108
105
94
76
75
109
87
73
101
108
103
104
94
92
85
91
96
78
79
93
97
80
83
86
79
97
88
99
73
98
88
89
79
99
97
74
77
100
77
89
76
77
94
91
97
95
70
72
82
109
102
72
94
85
77
97
101
108
100
80
72
81
87
109
106
104
102
84
79
82
85
97
76
106
73
100
71
84
92
77
88
89
83
82
80
86
94
103
96
78
95
101
86
84
71
86
92
94
77
80
82
95
80
88
77
76
80
73
103
73
87
109
72
100
70
106
85
82
93
73
105
88
83
75
82
85
71
109
77
87
94
102
108
99
78
87
79
105
82
106
73
95
95
93
108
92
78
89
71
104
84
94
71
75
94
106
92
107
89
98
94
74
88
72
79
70
95
109
83
75
72
72
109
78
100
96
91
75
93
103
86
98
97
103
99
109
97
89
101
102
99
92
94
70
109
99
99
89
91
99
104
88
106
83
100
70
78
108
86
96
105
107
96
95
101
108
107
80
92
73
92
94
70
84
85
101
75
74
71
82
73
80
70
82
96
90
93
104
100
81
108
107
99
101
79
95
72
92
89
74
71
82
105
106
81
73
76
102
106
98
75
106
90
93
102
71
73
78
96
106
87
105
77
108
91
86
74
74
73
72
76
93
81
75
100
108
70
84
81
105
100
78
71
90
78
82
79
105
79
70
94
102
103
105
82
75
72
70
82
80
74
79
109
88
107
92
86
107
107
109
95
86
80
76
76
96
101
86
73
71
72
91
102
106
108
83
89
80
84
92
93
89
89
98
75
91
70
70
86
96
89
83
75
109
85
92
72
94
94
105
108
73
77
76
80
72
93
103
93
91
85
73
70
109
87
89
78
77
80
97
85
105
88
78
71
86
92
79
94
107
99
77
89
70
94
82
109
103
100
93
107
76
76
84
98
76
84
75
71
80
97
100
81
95
104
71
90
105
77
77
91
103
74
79
87
80
75
85
84
71
103
107
101
75
89
78
107
87
95
80
76
91
99
104
93
74
105
102
84
95
88
93
89
105
100
82
103
86
83
92
93
71
103
108
82
88
83
87
88
108
74
89
72
86
84
85
78
91
82
82
78
102
108
88
87
83
89
76
104
80
71
103
72
97
76
102
106
92
84
94
97
108
75
86
72
97
77
106
78
96
76
100
79
71
99
85
86
76
81
109
74
87
71
96
78
108
101
98
78
85
98
83
71
88
107
70
86
77
102
87
108
107
71
107
96
83
91
85
109
76
75
86
77
97
99
100
86
104
108
79
109
77
102
104
89
78
98
106
81
80
79
93
96
90
83
72
103
72
77
72
92
75
97
87
106
103
107
78
73
109
95
93
95
74
96
74
103
104
80
81
89
107
96
84
99
71
80
91
94
104
73
109
75
89
73
87
88
81
87
100
102
91
79
94
77
86
96
84
82
101
100
76
87
103
104
91
91
80
77
99
109
105
87
100
91
103
100
95
79
104
86
94
77
83
76
96
86
71
102
83
73
84
80
107
82
98
81
91
99
79
92
73
106
77
86
86
83
75
97
102
104
98
89
101
102
75
70
107
98
87
89
106
76
95
98
93
74
109
89
91
88
91
83
76
95
99
71
83
100
102
82
77
106
73
80
97
82
100
92
96
74
101
98
71
107
109
75
98
88
73
72
92
92
84
99
85
107
91
98
106
84
97
101
99
93
99
83
89
104
95
96
87
77
105
97
82
103
102
91
100
91
85
88
109
94
74
107
99
95
108
71
100
77
90
75
105
106
106
105
102
88
82
72
103
99
99
78
93
103
74
89
72
91
88
104
95
103
77
77
103
90
96
94
81
95
106
100
103
88
109
84
71
99
103
109
72
100
107
88
77
100
89
79
89
81
92
71
106
86
101
95
72
108
70
70
95
96
82
96
84
103
99
82
101
80
84
78
92
73
73
89
108
101
75
83
100
84
72
70
85
75
98
83
103
85
70
89
81
74
105
103
96
72
86
108
95
95
99
85
88
97
85
71
98
90
80
102
92
100
108
77
105
86
108
71
100
86
97
93
77
85
78
88
92
106
85
98
94
89
91
80
71
101
103
83
95
83
72
80
71
98
72
108
77
80
107
75
94
70
109
107
84
71
107
77
96
101
80
100
98
101
91
104
79
100
71
77
97
81
92
88
109
92
84
90
82
72
88
81
78
78
91
91
109
98
71
92
100
89
95
81
98
75
77
93
72
94
85
85
99
91
82
80
96
77
80
81
87
70
89
103
83
76
75
108
73
77
74
101
70
87
98
98
94
76
96
87
99
75
98
98
83
73
107
78
85
74
108
79
85
91
103
87
70
98
102
96
71
73
100
90
81
102
89
71
104
102
76
94
104
92
92
77
98
100
72
107
78
101
80
93
91
70
99
71
86
88
74
93
80
85
85
82
91
95
76
96
85
92
89
81
78
104
93
87
87
75
95
79
99
77
108
91
83
103
99
79
92
84
105
84
75
105
109
108
85
88
76
85
104
91
95
98
102
79
99
78
91
78
82
82
92
98
72
80
74
95
81
89
72
104
73
101
81
109
108
81
94
100
87
94
103
85
78
95
103
106
80
74
77
70
96
75
72
93
85
102
74
101
76
108
105
108
92
95
82
82
106
81
102
88
70
74
90
73
94
81
82
80
106
77
102
74
88
108
103
85
89
75
83
73
75
103
95
86
72
92
109
103
103
84
95
102
106
82
98
95
80
87
94
89
99
101
77
74
100
83
106
82
70
80
84
84
80
91
99
72
103
106
83
108
76
97
87
93
105
102
79
80
74
83
108
109
74
91
83
103
107
105
73
109
82
77
102
101
74
72
77
81
80
106
99
90
87
90
70
101
109
102
96
83
93
99
108
85
103
79
80
72
77
101
75
93
87
106
105
100
73
94
84
106
75
84
70
80
105
101
109
103
101
73
86
104
82
104
109
97
106
73
107
93
98
97
89
82
91
86
76
97
93
92
81
106
72
88
99
87
91
107
83
105
96
97
104
88
103
74
95
103
99
73
84
78
98
99
106
77
80
90
103
85
86
99
100
89
95
77
83
85
84
108
73
102
88
92
103
98
70
97
100
81
106
78
77
84
77
85
71
85
101
71
83
71
100
84
108
72
80
93
102
92
83
103
71
83
108
83
106
86
78
77
73
94
103
81
91
86
91
109
95
82
106
107
96
96
87
93
105
93
99
94
75
107
74
94
92
98
76
70
98
93
86
93
97
94
98
98
105
101
84
91
99
93
103
70
77
103
72
70
101
82
88
73
82
75
72
87
89
106
88
85
95
102
104
82
82
74
91
97
101
95
89
97
91
92
84
98
91
76
77
73
109
71
79
101
77
107
92
75
101
108
88
71
80
81
91
84
76
89
74
102
103
102
96
78
102
106
97
77
106
95
79
92
99
91
97
108
81
83
96
106
81
71
76
101
101
71
79
83
96
76
80
80
72
106
90
97
77
76
94
72
80
73
79
81
95
94
76
108
97
76
99
76
109
99
108
79
80
102
84
71
102
97
91
89
104
73
88
75
87
108
75
99
80
81
83
78
89
104
105
103
99
76
77
80
72
96
88
77
86
105
98
103
77
106
76
95
86
85
96
92
93
105
96
78
88
79
85
84
88
98
73
83
71
102
78
103
90
95
96
79
74
93
81
92
102
71
100
75
91
94
92
108
94
83
101
97
73
84
107
82
100
99
83
80
70
103
78
105
101
103
77
109
74
100
81
86
104
78
74
101
94
106
107
98
83
75
99
75
74
103
103
74
70
99
102
72
88
81
86
102
78
104
93
102
86
109
98
85
92
105
85
76
96
91
100
95
83
72
104
70
84
96
88
74
78
75
100
98
108
91
76
70
88
99
106
91
95
96
92
97
73
80
71
89
72
89
81
100
95
90
70
96
86
87
70
91
91
73
108
93
90
101
97
89
104
103
98
84
93
86
80
105
104
97
71
93
71
82
97
103
103
90
107
97
81
93
88
101
70
72
85
82
76
80
94
86
73
92
95
73
103
86
92
87
105
102
101
94
85
72
92
80
74
71
81
99
92
82
104
96
102
77
89
97
88
75
73
78
73
99
95
105
102
104
98
97
83
102
88
92
89
74
106
89
81
97
103
109
88
76
109
91
92
74
71
73
78
78
92
97
96
83
92
86
105
77
104
104
86
90
74
97
108
73
75
96
99
97
100
94
101
77
95
88
87
78
79
108
71
82
85
79
87
76
101
94
97
76
72
100
76
81
74
107
93
75
95
86
89
70
82
95
74
108
102
101
104
74
73
72
90
86
70
104
70
71
106
82
109
77
88
108
74
99
73
76
85
107
94
100
75
96
96
96
80
73
91
107
95
109
101
86
73
106
93
91
76
75
106
98
94
73
90
90
83
96
101
82
75
102
72
79
96
95
94
89
70
101
84
90
99
79
76
102
73
79
76
73
74
104
103
70
84
87
101
76
93
105
87
78
104
70
78
106
80
92
100
81
77
71
90
81
77
96
100
88
76
76
90
106
79
86
72
85
86
79
73
91
88
109
71
103
107
82
86
75
108
70
106
74
108
72
102
74
100
97
86
100
82
89
79
94
76
102
101
72
92
106
78
79
93
100
78
79
85
74
97
100
108
102
88
90
92
102
70
107
97
105
82
105
98
94
107
77
73
71
103
87
88
103
100
71
92
95
82
100
94
103
72
83
95
107
94
82
76
107
91
109
99
104
97
88
101
92
70
86
101
74
100
90
103
102
75
93
100
101
76
95
109
88
73
105
78
109
92
98
70
79
70
96
91
95
97
89
83
90
96
91
104
93
101
89
84
79
91
87
94
70
101
80
75
93
70
77
80
76
75
105
87
88
86
107
97
85
92
84
83
89
73
106
83
106
106
84
93
107
92
70
89
99
83
87
87
95
94
97
86
81
81
73
73
96
106
96
76
98
81
73
101
80
105
100
102
73
76
74
98
105
94
74
94
75
88
107
106
77
96
75
88
83
95
72
92
70
84
93
108
71
79
103
83
95
72
81
88
80
89
76
100
97
105
75
108
94
91
86
76
79
70
100
109
90
94
71
95
99
91
91
75
83
88
104
74
78
71
104
74
81
91
74
75
108
70
80
108
93
92
86
76
85
71
84
77
71
100
102
107
94
71
74
102
94
83
82
92
94
84
90
84
76
96
76
70
105
91
82
86
95
90
92
98
72
83
99
90
97
107
93
80
95
88
98
80
72
72
78
81
70
81
88
109
79
90
81
78
97
89
90
81
92
79
88
71
95
98
73
81
80
82
75
101
95
102
90
95
82
95
91
97
70
100
72
101
92
104
75
90
98
97
85
94
92
82
89
91
107
92
109
101
109
104
89
98
108
89
108
99
75
104
83
99
87
79
106
101
91
81
96
83
94
90
70
108
72
91
81
109
83
97
96
76
95
79
80
104
81
81
86
93
84
83
92
79
96
104
96
101
74
71
105
96
84
91
108
76
95
106
86
70
103
97
90
94
78
102
86
95
75
70
89
77
76
96
71
102
97
105
104
84
75
81
94
106
109
102
86
77
106
96
105
77
95
76
91
100
106
77
99
86
84
88
101
74
107
71
76
104
107
89
108
83
85
87
87
97
96
90
93
72
104
107
90
99
76
99
83
70
76
92
73
94
91
71
97
76
81
104
83
76
84
72
90
81
105
73
83
76
109
95
97
92
105
100
88
96
101
84
105
75
99
75
78
94
96
76
103
77
71
83
91
107
103
101
107
87
101
87
99
107
109
108
74
82
77
91
77
91
82
88
87
91
80
90
91
87
92
109
85
82
84
105
94
100
89
98
94
92
100
81
95
104
71
107
88
82
93
73
71
108
76
104
107
88
74
105
72
89
102
92
108
86
72
96
82
96
92
94
101
74
75
71
87
96
107
75
90
75
104
92
71
76
106
74
70
87
73
89
77
99
102
95
100
103
76
74
96
79
103
89
70
94
76
74
107
78
89
100
74
78
78
86
101
75
92
80
79
99
77
80
106
70
85
80
84
101
71
93
72
72
75
92
90
74
70
80
99
80
106
71
78
106
104
93
73
105
91
97
104
82
103
103
78
89
90
102
94
97
97
83
82
99
86
93
97
86
89
74
86
78
93
74
103
72
77
83
83
92
70
92
103
76
78
71
75
109
85
88
80
99
83
91
109
73
107
85
91
89
102
105
77
105
107
94
84
87
109
103
106
95
93
107
85
106
82
86
71
105
79
104
75
106
108
76
106
74
71
84
95
92
84
99
72
105
98
75
79
104
81
89
87
88
73
77
74
100
100
70
82
86
78
109
103
95
92
72
97
85
100
83
103
86
83
90
79
77
108
90
94
83
87
72
90
79
97
74
78
81
99
85
94
107
93
95
76
89
100
94
98
75
89
80
97
104
100
85
73
86
73
105
90
95
90
86
99
109
85
74
89
106
87
77
82
73
97
102
90
97
90
102
93
91
70
85
102
98
70
99
72
75
79
82
91
77
79
82
90
74
109
109
106
78
97
93
93
80
100
106
104
103
73
88
105
94
108
96
70
99
73
86
98
101
80
83
105
108
96
76
94
85
106
75
106
70
72
76
72
79
93
91
79
106
70
108
72
108
90
107
88
76
94
93
72
75
100
86
75
93
92
84
72
103
83
92
105
81
92
92
107
95
85
73
103
82
99
82
96
92
104
92
70
76
99
88
98
78
81
82
107
71
76
107
104
79
81
88
79
104
85
108
94
87
82
92
96
72
87
90
106
87
94
101
78
108
99
79
72
94
89
102
87
83
78
71
102
94
74
72
108
99
76
100
80
88
94
109
89
92
106
109
78
100
93
109
81
99
83
106
105
82
91
84
72
96
84
89
98
76
80
90
87
81
72
76
75
105
105
82
92
109
93
89
75
92
85
76
103
74
109
73
102
98
104
75
94
71
86
81
91
80
107
72
89
75
90
108
85
99
81
77
87
76
71
79
99
86
92
98
80
88
96
84
103
104
87
75
96
104
90
88
75
75
97
96
99
80
73
108
79
85
104
76
91
80
105
104
92
75
76
71
107
86
100
75
76
97
80
84
104
90
74
108
80
76
76
100
74
97
77
101
105
104
94
97
72
90
89
98
95
98
76
83
73
92
90
102
109
72
83
102
100
86
102
103
91
99
92
98
97
109
94
101
90
108
105
98
86
74
89
95
84
84
100
102
83
73
97
94
82
83
89
73
109
107
76
71
99
98
87
76
79
93
109
85
108
104
107
97
76
79
97
93
98
81
93
80
95
86
74
81
82
98
81
86
75
74
94
94
90
95
71
72
83
96
105
102
85
85
100
77
75
98
95
102
75
88
94
82
93
98
99
104
102
78
76
83
94
91
76
83
94
90
75
80
94
88
106
70
70
74
74
77
99
98
77
73
101
82
88
98
71
70
102
108
78
95
104
73
101
76
76
101
96
108
76
75
72
74
89
87
87
72
71
75
76
80
82
86
81
86
89
105
83
89
75
100
106
84
95
89
82
96
88
102
72
77
105
73
97
88
101
87
104
95
106
94
94
99
79
92
79
77
107
72
98
92
104
79
81
102
81
97
83
77
103
109
94
76
106
74
89
98
70
72
80
78
92
102
81
84
99
85
95
86
102
85
84
87
95
71
77
92
92
75
97
108
98
82
98
105
72
86
71
103
77
105
89
101
92
107
76
98
86
72
72
90
96
106
73
89
71
91
84
71
106
85
76
76
104
109
99
70
97
109
84
80
81
74
81
85
106
109
88
70
72
77
108
89
91
77
81
83
89
82
103
86
83
73
83
70
81
86
82
88
87
87
80
77
74
98
89
86
102
93
77
72
106
109
73
82
103
72
99
100
108
86
78
106
109
77
87
81
93
77
103
74
90
77
91
77
72
91
72
71
105
89
75
95
91
78
80
109
74
74
96
84
72
78
89
75
74
107
105
102
109
99
106
82
73
109
93
96
84
92
96
105
98
82
90
92
84
97
88
84
102
91
73
101
94
82
71
80
105
74
95
109
80
78
91
96
108
104
101
79
109
109
71
91
73
88
73
86
75
102
99
100
74
90
91
85
76
98
73
73
99
98
73
101
78
87
81
101
107
71
76
98
84
94
102
94
71
100
81
86
74
78
95
96
79
73
81
100
109
103
71
72
71
83
73
86
80
103
78
105
103
88
98
104
104
96
101
90
83
92
82
99
81
103
70
78
84
79
82
83
102
79
89
82
77
77
78
89
85
108
72
91
71
109
71
90
97
73
92
86
109
98
92
86
78
75
94
102
73
92
109
106
97
107
87
90
93
104
79
86
94
104
96
108
75
108
99
103
87
106
107
75
70
100
87
95
107
96
79
81
78
105
99
80
93
91
73
94
104
76
85
100
73
97
86
75
92
71
70
96
91
108
73
96
85
92
74
109
104
80
99
71
108
76
100
78
98
96
70
94
101
89
88
108
104
89
81
81
81
101
103
93
84
109
104
77
82
81
71
96
83
97
89
71
90
102
80
107
105
88
103
99
93
80
103
78
74
103
98
101
82
109
87
85
90
86
94
100
70
83
76
89
94
85
80
105
81
71
102
80
105
77
84
85
78
95
108
105
72
98
98
104
71
97
94
97
78
88
108
91
80
98
106
72
88
91
89
103
71
104
72
92
90
93
93
91
90
95
85
85
97
76
87
82
73
72
76
72
79
90
81
82
72
85
88
108
90
83
108
94
86
103
92
72
109
106
81
70
73
105
83
83
101
108
97
82
87
98
80
106
109
83
79
82
78
78
104
70
107
101
80
89
70
94
83
108
73
99
98
109
97
99
78
75
93
106
106
105
90
71
92
97
73
109
100
75
75
101
80
86
99
97
95
94
93
99
93
71
70
87
78
81
92
103
94
100
71
70
96
86
73
87
102
99
82
71
97
84
94
88
105
99
83
95
103
85
77
96
73
81
108
88
78
89
82
92
99
103
77
80
77
82
108
74
79
80
88
89
70
101
96
96
83
93
97
87
81
71
85
76
73
108
100
77
106
94
73
73
92
83
79
88
79
108
91
81
71
89
107
75
75
88
71
93
78
102
87
73
77
84
86
94
91
77
70
86
106
80
75
96
98
81
108
103
103
101
71
106
94
86
108
92
79
75
78
71
106
107
93
77
107
99
71
88
96
87
104
83
109
94
71
72
85
73
100
75
100
100
103
94
107
86
90
95
108
102
74
79
102
70
98
84
75
109
72
105
72
72
92
92
100
104
94
73
85
82
95
109
72
74
75
70
79
73
70
97
104
98
109
91
99
71
86
100
108
97
74
105
98
88
97
97
79
104
95
91
82
100
102
78
81
79
92
88
74
89
103
107
100
78
70
93
89
78
73
71
95
104
108
80
96
88
87
74
94
83
82
86
107
88
96
108
88
90
97
94
108
83
109
93
88
83
101
107
104
90
108
107
92
90
102
78
96
88
87
88
73
76
87
90
97
70
93
97
109
92
98
78
85
90
88
95
107
97
107
87
72
83
70
90
107
94
104
83
91
87
72
89
96
73
71
95
85
77
94
83
72
108
88
82
108
92
89
98
95
95
86
95
88
106
103
82
108
84
91
71
73
86
91
86
90
98
81
77
76
86
90
108
104
75
98
73
83
73
87
92
82
70
97
109
106
103
80
85
102
109
102
107
106
76
86
104
88
88
70
92
73
81
105
91
79
80
96
98
72
106
74
103
77
77
73
88
84
89
95
106
83
105
97
93
70
98
83
93
98
75
108
93
107
77
100
71
107
76
91
71
84
103
107
97
72
77
72
96
79
97
87
80
73
79
77
78
108
95
90
71
72
98
109
102
97
90
74
98
93
87
74
87
103
71
105
76
107
70
93
109
82
70
93
89
105
72
97
87
85
92
73
101
97
70
89
97
84
97
107
83
85
96
101
106
96
83
84
94
109
79
97
103
87
89
75
92
98
92
109
78
105
80
90
102
79
78
94
76
100
90
103
82
74
104
108
88
89
106
101
97
96
80
107
78
108
97
80
89
102
98
98
93
72
77
84
76
96
75
78
97
97
84
103
87
86
78
88
81
88
85
74
84
82
74
83
74
90
79
77
96
107
74
79
74
98
104
96
102
109
76
81
102
74
96
106
106
87
107
72
101
70
83
70
95
84
109
105
83
89
99
105
105
82
101
92
103
70
99
77
92
70
98
93
85
97
101
73
107
94
102
77
101
75
109
102
90
101
88
94
89
105
92
108
93
91
99
90
107
101
94
99
94
75
109
100
109
108
108
74
90
99
80
101
87
94
83
108
109
79
100
97
85
98
107
70
90
94
107
80
70
87
89
74
108
91
100
109
78
76
77
95
96
102
97
98
84
73
84
87
80
104
96
74
109
91
87
96
73
91
102
78
72
76
74
75
78
103
71
89
104
89
103
104
107
78
80
92
85
74
89
88
107
97
93
74
98
101
81
105
75
73
91
85
72
92
84
93
76
95
80
95
99
106
106
84
76
84
85
97
96
90
97
93
70
74
75
104
85
73
80
81
78
97
83
83
80
70
101
97
78
91
92
71
71
105
72
107
84
88
81
107
95
97
101
97
81
75
89
108
76
92
109
73
75
91
101
74
104
76
77
70
84
83
78
98
76
76
94
101
81
106
108
74
88
95
108
97
108
100
88
79
97
89
80
72
83
87
90
74
102
100
70
100
79
87
108
102
90
108
79
83
85
98
77
84
77
83
103
71
80
92
103
88
91
78
104
70
109
93
74
74
83
87
93
75
85
94
102
93
97
81
88
107
79
72
93
83
77
103
78
74
99
109
70
79
73
77
109
76
72
108
84
90
95
84
93
76
103
89
77
95
105
75
76
88
70
83
76
86
103
81
104
82
71
85
103
85
85
84
81
105
94
85
73
90
106
101
75
78
78
72
73
107
83
89
105
95
108
84
89
94
77
90
93
104
74
93
104
73
102
76
81
101
102
72
80
107
77
104
90
81
73
83
105
73
109
85
71
106
72
83
108
106
102
82
86
99
94
100
89
99
84
93
104
88
96
101
98
100
70
71
104
102
95
89
77
89
72
85
87
88
106
88
78
82
90
104
83
83
82
92
75
107
95
102
100
75
108
76
102
77
71
104
93
76
82
108
79
92
93
106
73
106
90
99
71
95
73
102
91
73
109
75
78
90
79
72
109
101
74
85
101
79
70
107
82
99
105
82
109
73
107
75
84
79
104
107
102
87
91
74
79
99
89
74
97
79
100
84
84
79
82
79
103
105
109
74
71
99
91
92
103
96
105
90
97
87
108
73
92
100
80
93
103
84
85
97
108
91
86
96
89
96
76
75
83
83
75
99
75
77
98
74
94
97
105
85
79
106
86
85
88
94
89
103
90
73
73
72
73
101
86
76
107
80
72
89
106
86
95
80
95
72
77
92
90
77
106
102
95
105
102
87
83
84
108
95
80
84
101
94
77
101
106
98
82
71
86
97
107
89
107
71
106
85
76
97
82
100
83
83
81
75
85
79
93
94
82
103
82
108
89
93
107
75
91
80
72
86
71
106
86
92
78
105
93
99
79
74
70
84
78
92
84
97
89
92
109
84
92
77
96
90
85
83
97
80
106
96
98
100
105
94
109
71
96
101
104
106
71
103
103
95
98
75
72
97
75
80
75
79
104
74
105
76
105
97
95
75
109
72
99
73
93
75
86
75
105
93
90
82
74
72
77
108
71
70
95
85
76
73
97
102
88
86
70
84
109
71
78
100
102
72
97
70
108
90
97
79
105
79
75
76
97
101
88
100
101
87
102
85
90
104
100
81
90
89
70
82
106
84
86
84
91
98
92
106
76
83
103
92
96
84
100
71
100
86
103
85
93
76
72
95
87
84
71
89
80
106
106
77
70
106
78
82
94
93
77
77
103
93
80
105
86
108
109
75
92
98
74
73
109
94
107
109
106
71
87
77
81
83
106
85
82
95
71
94
94
88
76
88
92
82
75
86
100
95
109
73
87
106
106
88
78
84
87
102
98
87
95
101
84
74
93
90
79
92
96
104
83
76
80
98
98
72
97
99
80
76
93
88
103
102
71
81
96
104
77
91
81
93
85
81
107
104
100
101
75
89
98
89
84
89
106
107
107
88
81
89
83
77
85
96
90
86
72
92
84
88
76
99
78
73
105
82
85
108
78
109
104
102
77
89
83
103
97
76
102
98
100
103
86
88
76
82
90
105
77
81
104
93
94
86
105
107
109
95
106
96
91
90
109
106
104
102
87
77
102
75
107
78
81
85
79
94
98
93
78
73
80
81
70
103
80
93
90
83
78
89
98
90
85
108
73
79
75
106
104
101
73
99
98
91
73
108
80
79
72
89
85
92
87
107
92
78
92
94
97
80
86
95
85
100
82
76
102
75
103
76
86
93
81
97
75
99
92
99
71
98
70
79
89
91
74
79
92
82
106
76
102
83
85
105
99
108
82
98
99
103
92
84
106
102
102
71
86
108
105
106
70
105
75
94
89
94
82
109
93
74
98
100
73
76
75
95
93
99
78
84
88
106
89
83
82
79
105
84
75
71
72
74
76
106
80
86
101
101
94
70
94
79
82
104
90
107
95
106
73
72
86
76
109
78
71
88
103
74
90
80
83
99
106
97
89
94
108
95
109
95
80
82
89
89
85
71
74
80
73
97
96
93
89
73
98
89
101
100
106
70
80
84
76
74
103
74
85
85
96
90
73
101
77
71
77
88
97
81
79
75
90
84
83
72
103
84
79
84
84
85
89
82
92
71
87
98
71
74
96
87
100
94
89
72
71
103
106
108
103
103
106
75
98
76
72
106
106
99
84
95
92
93
77
87
85
82
109
93
72
83
82
75
95
84
101
77
78
81
88
84
102
104
76
89
88
80
97
107
79
72
106
106
108
100
87
101
100
91
84
89
109
84
75
74
89
74
78
103
74
78
71
97
102
76
91
85
109
80
100
99
105
83
79
101
100
72
70
99
105
92
70
70
108
102
91
85
99
91
106
85
73
92
103
107
89
84
105
103
88
93
99
97
102
91
100
95
70
107
89
75
91
84
105
102
109
95
106
97
93
76
106
86
102
78
105
74
77
95
77
86
98
86
77
94
86
88
90
90
87
76
90
107
91
76
103
104
82
97
96
97
86
87
103
99
71
81
107
94
82
109
86
75
82
83
73
99
98
90
79
84
90
92
72
100
72
107
71
83
96
92
94
108
71
83
95
92
109
103
94
95
105
87
70
79
89
85
89
94
82
106
85
70
85
82
83
86
83
89
97
80
98
103
74
97
80
96
100
89
79
87
91
108
98
100
84
88
103
99
76
95
93
79
106
103
96
102
83
89
91
95
85
103
101
98
93
105
80
103
77
106
77
97
72
102
108
92
80
70
107
77
106
80
76
81
72
81
92
97
96
84
105
84
90
72
108
93
104
100
87
78
97
78
73
70
87
85
95
95
82
107
93
91
83
103
86
88
94
98
105
89
74
81
100
96
90
106
85
105
81
90
94
80
106
102
105
101
86
89
77
94
98
85
79
78
95
94
92
85
75
91
70
81
81
70
109
83
93
86
88
76
74
75
101
74
103
74
77
70
79
105
83
96
80
78
70
93
78
107
109
72
97
108
107
94
77
108
108
102
89
93
86
105
98
94
107
102
80
90
94
106
96
87
84
70
108
76
101
89
73
78
74
71
103
85
90
90
70
107
88
72
87
108
71
93
104
108
89
91
101
70
75
95
107
105
70
70
102
88
90
88
70
89
83
84
101
77
96
108
76
98
74
82
103
78
90
106
94
85
94
106
86
109
70
96
103
104
97
91
102
105
85
100
78
83
87
94
99
86
80
92
72
99
105
90
89
74
72
103
83
89
107
90
75
104
76
106
92
76
70
90
93
73
103
93
98
83
71
70
81
78
96
91
88
92
70
90
94
95
104
93
71
88
103
91
84
88
95
79
74
76
101
109
89
70
104
97
88
74
106
82
95
70
104
80
70
78
80
106
84
94
83
83
98
97
75
77
97
74
95
102
89
74
109
83
92
81
71
90
82
88
73
108
70
102
81
83
72
89
72
96
77
87
73
105
92
102
71
97
74
73
108
80
81
100
95
84
76
106
109
72
102
100
83
92
84
101
91
85
72
84
94
78
95
82
81
71
101
109
106
94
72
84
100
100
98
83
98
89
83
89
73
97
102
104
81
96
82
109
101
93
93
81
105
100
92
87
75
102
85
87
77
76
89
74
90
90
92
71
79
73
79
101
84
95
105
74
83
83
105
84
104
99
70
94
73
104
107
77
104
77
109
92
71
108
70
108
76
82
104
96
93
76
74
80
77
89
71
107
88
90
79
107
83
96
101
84
71
92
91
86
104
109
75
83
89
93
88
90
75
93
76
77
77
74
83
96
101
80
95
99
88
103
102
106
79
90
89
99
107
103
78
88
90
100
80
77
106
87
86
76
94
106
105
95
95
108
90
86
76
99
107
82
76
104
100
73
75
100
106
75
76
106
107
76
79
84
101
75
83
75
71
82
109
105
104
71
106
82
103
82
73
90
90
96
76
88
83
87
72
75
72
91
99
84
98
97
103
109
96
91
76
104
93
99
106
83
95
99
78
82
98
107
109
93
108
84
103
92
106
102
86
105
75
77
80
109
75
73
104
109
107
77
108
86
71
72
75
95
96
75
109
86
107
83
71
77
81
95
78
86
97
108
108
93
75
103
82
93
86
74
85
102
93
91
76
86
92
89
104
109
98
105
108
77
90
88
96
105
90
105
105
93
71
74
75
72
104
106
89
77
83
109
108
96
101
76
75
87
94
94
90
78
100
91
78
79
103
91
79
74
101
82
71
98
78
95
82
72
106
78
87
92
106
90
102
105
93
87
82
81
100
79
88
97
72
74
105
93
98
108
85
103
107
74
88
100
101
85
98
71
106
98
73
75
76
97
74
75
76
109
96
108
94
75
84
102

