bier127
127
1 9860 14152
2 9396 14616
3 11252 14848
4 11020 13456
5 9512 15776
6 10788 13804
7 10208 14384
8 11600 13456
9 11252 14036
10 10672 15080
11 11136 14152
12 9860 13108
13 10092 14964
14 9512 13340
15 10556 13688
16 9628 14036
17 10904 13108
18 11368 12644
19 11252 13340
20 10672 13340
21 11020 13108
22 11020 13340
23 11136 13572
24 11020 13688
25 8468 11136
26 8932 12064
27 9512 12412
28 7772 11020
29 8352 10672
30 9164 12876
31 9744 12528
32 8352 10324
33 8236 11020
34 8468 12876
35 8700 14036
36 8932 13688
37 9048 13804
38 8468 12296
39 8352 12644
40 8236 13572
41 9164 13340
42 8004 12760
43 8584 13108
44 7772 14732
45 7540 15080
46 7424 17516
47 8352 17052
48 7540 16820
49 7888 17168
50 9744 15196
51 9164 14964
52 9744 16240
53 7888 16936
54 8236 15428
55 9512 17400
56 9164 16008
57 8700 15312
58 11716 16008
59 12992 14964
60 12412 14964
61 12296 15312
62 12528 15196
63 15312 6612
64 11716 16124
65 11600 19720
66 10324 17516
67 12412 13340
68 12876 12180
69 13688 10904
70 13688 11716
71 13688 12528
72 11484 13224
73 12296 12760
74 12064 12528
75 12644 10556
76 11832 11252
77 11368 12296
78 11136 11020
79 10556 11948
80 10324 11716
81 11484 9512
82 11484 7540
83 11020 7424
84 11484 9744
85 16936 12180
86 17052 12064
87 16936 11832
88 17052 11600
89 13804 18792
90 12064 14964
91 12180 15544
92 14152 18908
93 5104 14616
94 6496 17168
95 5684 13224
96 15660 10788
97 5336 10324
98 812 6264
99 14384 20184
100 11252 15776
101 9744 3132
102 10904 3480
103 7308 14848
104 16472 16472
105 10440 14036
106 10672 13804
107 1160 18560
108 10788 13572
109 15660 11368
110 15544 12760
111 5336 18908
112 6264 19140
113 11832 17516
114 10672 14152
115 10208 15196
116 12180 14848
117 11020 10208
118 7656 17052
119 16240 8352
120 10440 14732
121 9164 15544
122 8004 11020
123 5684 11948
124 9512 16472
125 13688 17516
126 11484 8468
127 3248 14152
106
108
103
85
72
84
99
87
101
104
71
74
99
90
78
84
89
93
106
76
95
109
109
82
85
76
102
84
88
107
74
91
85
70
81
70
72
75
106
77
87
84
98
80
98
99
81
104
70
86
93
102
83
83
99
100
91
85
107
97
100
79
100
81
79
104
96
83
89
96
105
77
74
83
108
101
85
76
93
105
79
91
83
74
76
106
109
100
70
92
101
89
71
79
76
78
105
75
70
78
91
91
87
102
71
92
79
90
90
84
74
86
100
85
107
94
73
106
82
89
103
81
83
84
88
82
89
92
106
71
106
94
86
92
77
74
70
80
98
85
82
108
105
70
77
76
101
100
99
108
90
85
86
77
101
90
105
80
75
81
108
75
93
91
89
89
74
72
95
86
77
95
77
84
97
99
89
87
82
90
90
96
101
95
90
72
107
107
80
83
91
95
109
71
78
85
94
77
86
88
81
87
89
81
107
99
106
108
81
71
81
106
70
101
92
79
77
89
78
87
79
97
87
101
94
84
85
108
99
94
97
74
93
83
93
82
92
105
92
104
77
92
82
74
70
108
70
101
85
81
101
78
108
98
106
91
71
98
98
73
81
84
92
86
100
97
105
105
95
80
96
81
109
101
94
100
76
92
92
82
75
95
89
72
96
95
73
81
96
80
86
82
72
105
102
108
92
106
93
72
94
93
93
94
81
90
84
87
86
70
85
76
79
84
104
70
98
88
86
87
105
95
80
88
103
74
96
93
109
101
106
94
95
75
108
79
80
108
84
83
85
106
89
108
96
96
92
70
76
84
88
101
89
70
104
91
72
73
80
95
97
107
88
83
98
72
76
100
76
107
102
72
73
71
96
90
72
106
77
81
84
91
80
91
81
94
103
108
73
94
89
107
102
107
85
103
97
108
93
101
83
102
91
94
89
109
75
79
85
83
105
104
83
71
100
81
105
87
108
89
83
105
96
106
102
102
75
74
91
96
71
91
94
102
106
109
71
101
73
97
80
82
106
89
73
93
78
95
105
72
79
92
86
105
103
98
103
91
81
100
71
100
75
100
76
90
100
101
89
87
82
74
97
79
88
94
70
88
78
78
73
98
81
84
74
78
93
85
73
75
96
93
102
103
88
73
87
107
88
102
72
106
95
88
80
76
97
70
105
86
91
76
104
76
105
96
78
105
106
81
102
102
86
93
80
106
70
75
77
73
78
96
108
87
103
109
93
87
71
96
75
71
109
90
103
94
79
98
91
98
94
88
84
107
85
92
85
76
94
104
87
75
94
91
109
86
74
80
87
104
106
78
77
76
100
97
86
106
76
81
105
96
90
73
93
91
93
75
84
86
87
106
77
81
81
96
74
102
81
97
79
80
80
79
85
93
81
79
93
70
103
101
104
76
94
92
95
77
84
96
103
103
81
103
95
76
86
101
77
79
106
79
109
71
75
107
83
81
83
102
108
98
80
94
80
77
80
105
91
90
100
92
84
104
109
105
101
100
109
83
92
82
96
100
97
100
74
90
89
89
90
109
98
103
95
84
97
76
74
80
96
73
101
96
92
97
106
87
70
104
103
91
88
103
104
103
82
103
70
84
77
108
102
83
97
101
77
103
90
96
91
89
96
99
109
75
79
105
96
72
99
105
83
75
72
109
100
72
74
98
109
105
89
91
96
98
95
83
81
71
92
74
100
76
97
72
94
100
100
104
96
94
84
71
81
85
78
77
107
95
95
82
106
73
75
101
88
89
101
105
100
76
79
74
107
97
92
71
104
77
101
87
73
96
73
81
106
104
104
102
78
109
82
90
106
84
107
107
108
80
90
73
92
86
83
71
83
96
89
104
81
109
96
78
75
94
98
87
93
76
80
81
83
96
91
96
79
83
91
109
70
71
96
105
107
93
103
82
89
73
104
77
91
83
70
109
94
88
94
98
90
96
92
86
108
81
98
76
96
76
106
98
109
78
109
73
73
106
101
82
87
84
73
99
93
89
79
98
107
102
95
106
97
102
76
100
73
104
70
79
93
72
87
99
106
85
83
82
101
91
75
88
76
106
91
85
88
86
98
88
89
72
99
94
75
93
106
75
88
86
104
89
95
104
107
79
83
92
80
83
95
90
90
83
96
97
87
97
107
82
105
77
105
78
83
87
103
109
84
85
75
105
97
105
93
82
102
95
90
83
92
101
71
101
74
92
100
83
109
71
70
93
74
82
73
73
70
84
86
94
76
87
74
75
94
80
71
80
103
74
71
83
97
104
102
78
91
75
103
78
85
72
73
95
94
70
84
71
94
86
79
97
96
84
91
106
98
101
94
105
96
105
81
82
109
83
98
76
100
95
73
92
79
84
101
81
101
89
103
105
89
93
82
108
97
89
72
80
84
105
89
100
95
108
96
74
90
87
86
70
86
80
91
92
74
98
97
97
103
93
108
96
80
72
95
80
94
105
89
100
99
91
80
75
78
98
100
73
94
75
103
78
74
96
84
109
95
106
102
96
108
95
106
98
91
79
87
93
105
74
92
77
104
84
91
101
74
91
94
89
90
72
71
91
101
92
84
105
95
70
82
87
83
90
89
73
90
107
81
76
104
76
99
109
99
100
107
90
86
96
85
104
109
86
85
85
74
103
75
103
79
107
103
92
77
92
98
91
101
76
109
83
76
72
77
91
84
90
71
82
97
73
73
104
81
92
90
76
96
71
106
79
82
108
93
105
98
109
83
98
99
73
76
92
109
78
91
103
75
103
72
93
82
109
98
96
108
82
77
96
102
76
104
81
87
79
98
100
106
102
103
77
101
91
77
93
99
93
100
81
103
106
77
91
98
93
97
95
79
73
78
89
93
79
78
93
109
100
80
87
101
103
107
92
83
74
96
88
102
86
104
73
81
84
86
100
105
73
70
103
82
105
77
95
77
88
99
99
77
84
87
72
90
79
73
95
93
101
94
76
77
80
71
95
89
84
107
72
95
80
71
71
101
89
83
90
78
102
87
107
103
87
101
105
74
79
88
102
107
76
78
104
89
100
98
108
95
99
77
88
92
82
78
103
96
98
79
107
80
105
82
86
75
92
108
81
85
86
89
73
84
80
88
70
98
74
104
94
75
96
99
98
87
104
106
79
90
99
73
72
90
107
93
82
80
84
107
88
91
101
107
104
90
89
92
85
72
89
73
94
76
84
85
87
106
106
76
87
76
93
98
74
101
90
71
88
104
94
107
94
76
76
102
107
75
94
107
85
99
82
102
85
92
87
108
72
91
71
106
103
70
96
89
74
73
70
80
89
73
75
83
83
87
74
82
98
104
80
85
94
106
92
86
89
105
104
103
99
83
80
102
80
80
107
70
79
70
88
81
83
76
75
91
95
70
71
104
101
80
94
88
88
94
79
74
76
100
96
86
106
81
85
72
72
98
79
106
96
100
79
73
72
89
85
91
90
95
85
71
101
109
73
102
99
103
85
72
84
84
70
98
84
95
100
87
96
99
99
84
87
106
84
88
78
72
81
84
76
91
81
95
72
101
89
86
72
101
76
74
75
107
99
106
104
75
88
107
105
84
79
92
99
74
103
95
87
72
72
109
77
105
78
105
71
97
77
104
85
72
108
95
80
87
102
102
80
70
95
92
81
85
85
99
107
82
103
101
82
90
98
86
78
107
105
100
107
97
109
109
75
80
102
104
74
82
104
87
107
72
106
107
82
78
75
88
105
75
77
98
71
70
78
104
93
71
109
72
99
109
106
100
83
108
89
100
91
74
105
84
81
81
88
94
98
79
105
107
108
84
80
71
101
108
101
90
92
71
72
86
78
85
92
85
107
109
79
75
98
95
80
77
98
97
74
80
75
103
72
108
84
87
89
106
94
108
71
84
89
81
74
93
86
96
82
89
84
83
109
102
103
75
70
82
102
71
79
78
100
96
96
108
81
106
80
78
81
101
99
103
70
101
84
109
82
103
77
87
87
102
77
91
98
76
82
92
101
76
104
90
101
104
104
82
99
102
108
104
86
89
97
82
81
101
86
103
97
106
77
79
83
77
71
92
83
84
85
90
87
96
100
91
93
104
96
103
98
75
85
74
94
102
98
101
92
71
95
98
93
81
96
98
95
90
107
105
82
73
70
101
76
99
92
82
102
96
98
90
87
97
76
83
79
101
70
73
102
101
72
86
77
76
81
95
109
75
79
89
88
92
94
83
85
101
104
86
79
79
76
83
104
104
73
107
90
94
92
93
71
101
80
75
81
106
78
78
92
73
102
84
99
84
101
70
88
101
71
79
80
102
102
106
70
79
107
107
87
96
93
89
86
88
88
74
105
93
88
88
76
100
78
106
100
99
82
78
86
109
73
77
97
94
81
96
82
71
75
82
95
109
88
102
77
109
80
90
85
99
78
107
85
75
80
76
84
71
109
89
80
91
104
89
99
77
76
92
90
72
72
80
88
83
78
74
75
102
79
84
78
109
89
74
95
96
99
89
89
89
95
105
100
96
105
82
76
107
88
86
104
106
91
86
108
83
102
104
104
97
77
78
98
106
72
74
74
105
95
89
101
81
96
94
92
83
87
81
77
98
101
103
98
101
92
75
105
77
81
101
77
79
99
98
74
84
76
77
78
87
78
109
70
103
95
94
71
102
96
108
102
105
90
70
106
80
82
95
73
72
95
107
80
88
73
96
79
97
84
82
99
106
86
100
94
74
77
99
100
95
92
101
80
79
88
91
103
77
94
107
82
102
95
105
82
108
102
102
71
90
82
81
90
98
87
94
100
92
82
108
101
79
84
84
89
77
102
102
97
82
103
86
102
77
106
95
99
90
75
70
76
79
107
99
81
86
74
76
87
107
93
98
105
86
96
79
83
75
77
88
87
72
94
96
108
94
95
78
76
108
80
80
108
88
97
103
97
79
79
109
73
88
86
92
80
84
95
72
84
96
93
80
75
94
98
90
108
105
95
77
83
96
92
98
73
93
108
93
107
102
101
81
73
75
86
82
90
89
82
71
86
78
93
79
92
78
100
99
102
86
73
76
82
87
79
70
90
101
83
94
77
81
76
96
87
75
77
101
79
108
104
82
88
75
109
108
90
94
75
107
82
92
78
108
71
105
98
84
70
105
87
89
97
80
78
75
83
90
90
83
95
94
82
75
74
96
78
95
78
80
88
74
104
109
86
92
76
93
93
106
79
105
104
70
70
109
96
89
77
70
86
78
74
71
87
73
108
85
72
72
78
105
75
73
88
79
72
92
103
109
95
106
76
85
84
86
83
94
93
107
77
96
96
78
88
79
72
101
85
82
90
80
91
108
75
71
74
83
93
109
98
103
81
83
101
77
78
96
106
84
99
87
99
88
89
74
74
70
77
78
103
103
77
78
109
104
105
93
78
72
92
70
76
84
98
102
82
72
108
100
82
95
90
79
72
109
105
82
86
107
85
84
73
83
96
99
101
76
92
89
101
96
101
79
85
108
83
82
75
72
103
75
99
87
99
83
90
89
71
94
70
95
81
103
84
103
92
101
89
74
109
101
93
89
74
72
77
79
99
95
80
75
78
107
85
76
70
74
75
90
83
103
96
99
88
72
78
91
81
102
91
80
91
105
87
93
73
98
100
92
100
101
97
106
74
79
72
93
90
100
97
97
79
84
78
76
75
102
88
95
78
86
89
70
71
75
108
90
106
100
90
108
99
85
79
108
106
92
100
84
104
105
77
78
72
101
70
109
81
106
74
83
99
75
85
94
105
109
91
88
102
71
87
80
90
78
88
107
79
76
105
103
95
82
104
81
105
99
82
77
107
82
77
86
82
79
85
79
88
71
91
89
93
98
83
85
73
96
101
85
96
78
79
95
80
109
97
74
103
101
89
75
73
88
71
81
96
97
83
80
84
95
102
99
94
109
71
102
87
76
103
99
94
98
70
83
98
85
79
104
77
91
82
88
90
100
90
100
80
74
78
74
70
95
91
96
90
80
73
90
85
105
92
101
73
105
79
77
102
95
84
92
89
101
95
76
70
100
100
95
80
105
78
93
70
86
89
70
80
76
74
72
98
79
102
99
96
74
72
107
84
85
95
86
107
92
87
79
86
106
103
82
72
70
75
73
108
101
82
102
97
104
75
73
103
71
99
77
84
86
91
94
99
70
104
78
93
79
74
104
106
70
105
92
73
90
77
101
70
99
85
87
84
108
90
77
108
80
109
82
84
91
70
70
91
75
103
91
92
79
96
89
98
70
100
71
75
99
84
98
103
96
74
99
106
89
105
84
104
106
99
99
89
91
75
75
94
83
76
95
74
83
105
72
76
92
87
105
85
108
104
73
101
92
97
104
83
86
86
94
92
94
109
96
82
109
96
93
89
78
103
80
87
83
93
86
75
95
106
99
79
82
81
96
88
96
74
87
78
75
91
98
79
90
83
89
104
82
79
83
87
76
80
95
83
87
85
83
93
80
77
93
107
87
87
95
90
83
78
88
107
105
103
81
74
105
85
86
99
81
87
70
86
94
87
76
77
72
95
95
98
86
72
70
70
98
99
80
72
78
99
107
83
94
98
99
92
88
99
102
74
82
72
86
78
99
85
87
93
93
92
105
91
105
99
103
99
83
91
105
93
103
74
96
102
77
75
80
102
97
85
99
102
70
97
107
80
92
88
87
84
70
85
98
80
89
78
97
80
107
72
108
86
96
75
94
84
99
84
96
103
107
91
99
94
84
76
93
100
71
97
101
82
84
72
74
104
79
89
82
101
89
83
71
78
105
87
78
91
98
76
75
96
103
109
87
75
100
104
107
81
78
73
98
78
94
79
81
84
90
100
90
83
101
82
75
99
97
92
96
102
89
83
72
81
83
107
86
76
78
70
86
104
97
78
84
81
92
96
79
100
107
95
99
106
80
95
71
101
103
76
84
99
81
82
96
89
89
94
90
98
107
108
102
96
78
106
107
90
95
101
108
70
104
83
84
89
89
105
93
101
86
78
82
106
96
87
91
73
105
100
105
108
74
91
83
106
71
84
97
74
70
109
87
85
99
86
84
73
104
87
91
83
83
73
97
77
80
83
89
80
97
86
92
75
75
91
101
85
107
107
100
88
81
87
73
79
84
82
108
105
94
91
98
70
80
95
99
81
89
94
73
103
75
109
91
71
79
92
91
74
107
97
77
101
81
109
82
101
81
85
100
82
89
84
90
79
93
95
94
81
98
89
77
109
103
80
102
87
109
87
71
73
78
109
76
105
85
102
82
86
108
105
75
92
84
106
107
77
104
97
106
106
75
98
91
75
83
86
85
100
70
90
95
105
108
71
97
107
85
74
72
75
85
92
91
86
84
109
84
73
91
93
89
95
108
107
92
89
97
105
103
77
80
95
92
83
78
71
100
107
73
105
78
107
90
104
90
72
91
109
95
82
93
75
90
94
78
90
104
102
104
88
93
91
101
76
94
70
82
77
92
91
106
91
98
71
101
100
81
83
88
90
74
97
87
107
100
71
104
105
78
75
89
74
103
93
77
107
92
99
99
105
106
88
71
104
85
78
77
88
72
71
76
100
86
86
95
101
88
83
74
71
72
95
107
89
109
108
102
91
72
81
94
83
94
109
89
89
103
81
75
100
79
75
77
84
75
96
87
97
70
74
92
107
108
90
78
84
87
104
90
100
72
105
85
99
104
96
102
100
79
88
102
88
78
80
109
96
104
104
95
71
70
107
71
103
75
70
75
107
84
104
88
109
77
98
95
90
80
73
80
106
103
98
70
84
76
93
108
73
95
109
94
104
95
87
82
106
77
105
80
94
102
85
97
80
79
101
84
70
101
89
103
84
85
72
99
88
74
83
80
104
86
72
100
82
83
85
94
76
97
75
96
85
83
86
100
76
101
82
109
72
73
104
89
88
98
81
94
84
88
98
83
99
70
88
81
94
80
94
82
85
105
101
80
81
100
84
97
73
89
96
89
105
82
101
96
104
86
86
78
72
86
105
101
76
87
94
102
93
103
82
70
85
107
79
106
72
80
94
96
79
97
96
104
71
105
105
84
74
105
70
76
101
100
88
108
81
80
98
90
101
72
80
82
108
96
96
101
91
73
93
82
78
78
89
83
108
86
91
99
104
106
98
70
97
105
105
90
84
91
83
101
88
83
96
103
106
96
89
73
99
77
96
102
87
96
108
89
87
104
100
87
89
107
81
102
77
94
97
71
108
70
89
88
85
103
107
108
72
107
73
95
86
101
96
101
80
79
96
82
95
104
75
95
100
82
84
92
82
75
91
81
104
74
78
82
107
85
89
74
76
73
73
102
94
89
77
109
98
98
102
79
94
71
89
92
75
96
107
102
86
80
93
98
106
103
95
83
92
93
81
71
87
97
80
78
81
97
86
88
70
82
70
71
83
99
70
109
77
85
109
78
107
77
79
81
89
101
79
99
87
71
84
85
82
100
79
80
73
109
108
78
106
88
95
90
94
92
89
82
106
104
83
84
96
89
90
71
101
99
108
83
84
75
82
108
99
82
70
75
77
92
102
109
80
97
82
96
71
84
91
108
90
91
84
86
84
94
102
75
70
107
94
90
75
96
89
82
100
99
92
103
100
79
85
71
86
80
102
74
86
81
75
97
93
84
81
102
81
98
74
77
76
83
86
89
92
104
108
89
83
71
89
108
88
94
88
100
70
84
108
87
99
109
90
83
83
76
90
99
86
78
94
77
72
76
76
79
79
81
97
105
74
109
87
99
80
105
104
90
71
84
91
72
94
102
87
74
101
107
78
70
83
98
100
92
72
78
87
76
84
76
89
72
80
102
91
84
84
88
93
83
96
97
100
75
87
85
75
85
105
72
109
102
88
101
73
105
77
104
71
104
76
81
83
96
85
90
72
93
100
90
78
86
107
83
86
75
103
97
93
100
88
85
104
99
93
88
104
84
79
92
70
76
101
87
104
96
97
105
76
104
72
81
84
92
87
90
74
109
100
84
78
103
107
96
103
93
106
84
71
94
103
88
82
79
72
96
71
73
76
107
103
92
96
107
102
92
108
86
96
99
87
84
78
71
72
90
89
101
71
71
70
86
107
93
99
73
102
90
81
90
94
95
74
81
92
97
77
102
106
70
71
108
105
90
108
75
105
91
71
82
100
81
102
108
85
91
106
91
77
102
77
83
95
95
85
72
93
90
88
90
89
100
72
72
88
94
73
107
100
83
72
101
82
92
79
89
100
81
102
108
87
84
76
92
79
105
103
72
73
104
88
89
105
86
106
72
86
72
76
104
75
81
77
100
71
95
88
84
103
105
104
76
106
99
70
70
86
70
104
90
73
81
84
90
74
108
102
99
89
103
102
73
93
79
102
89
85
105
90
77
104
89
88
100
88
101
82
72
84
77
106
100
78
86
85
94
109
104
91
89
83
85
71
86
81
83
74
100
106
107
84
77
78
82
85
99
88
72
105
75
89
88
91
72
78
95
91
107
80
89
74
90
107
104
86
79
105
86
97
83
104
85
95
75
105
100
72
97
82
109
106
77
102
85
83
70
99
84
77
83
92
70
91
71
89
105
83
77
100
88
101
96
93
78
98
103
105
103
80
86
109
84
78
96
89
101
83
108
107
77
76
70
106
88
93
79
93
72
79
79
74
88
75
98
99
88
94
81
70
107
102
75
99
93
108
76
100
104
82
92
72
89
87
90
96
95
97
107
71
108
74
70
107
72
78
74
97
73
91
106
104
103
98
104
75
87
85
87
109
102
106
77
73
97
103
81
72
83
102
98
71
103
91
105
79
78
99
95
102
98
96
73
71
100
99
107
101
76
105
99
78
95
88
96
78
109
83
83
105
91
85
108
85
95
91
72
86
99
101
81
100
83
70
87
91
98
89
86
90
74
95
79
94
90
70
84
103
109
84
102
98
97
93
97
105
85
97
91
97
87
74
81
106
100
84
82
108
105
93
96
88
106
87
84
92
73
108
81
100
89
106
108
77
99
87
90
107
97
86
107
94
105
98
70
96
101
91
92
106
72
71
73
72
99
99
73
90
106
90
79
109
80
76
76
105
90
74
70
107
98
98
87
86
107
103
72
102
109
98
93
86
81
86
74
106
79
72
78
87
77
70
103
82
76
107
79
78
94
88
78
74
74
108
79
82
83
94
87
92
77
74
76
78
82
107
106
87
92
89
100
91
92
107
104
91
91
94
84
100
86
70
80
94
95
76
76
104
90
89
108
90
109
99
105
100
84
94
97
109
108
100
73
86
86
71
107
96
86
86
83
107
108
78
94
81
82
107
85
90
88
96
78
89
77
108
100
94
71
93
104
86
101
105
80
80
106
106
71
89
76
90
108
83
94
88
96
105
99
97
90
78
77
99
93
95
77
85
86
102
75
75
78
104
79
97
86
73
97
86
76
95
95
99
88
100
77
75
76
104
90
86
76
70
104
81
98
93
108
80
109
83
95
94
99
101
92
100
77
105
91
80
106
96
77
80
70
94
97
72
92
108
95
80
106
97
91
106
100
76
83
82
84
76
76
95
80
83
107
105
84
89
80
107
82
101
87
74
87
74
82
71
88
71
89
82
92
70
108
87
100
90
98
86
80
83
82
93
92
84
75
96
99
71
95
100
99
71
101
105
81
94
103
71
102
96
97
90
99
95
92
72
72
97
97
105
75
71
81
81
95
95
101
91
107
84
74
94
93
100
103
76
94
75
82
88
80
95
103
104
86
91
98
76
82
71
96
70
108
72
81
74
106
108
97
72
99
105
95
79
97
94
109
76
94
82
89
107
85
100
99
77
77
74
96
84
81
78
78
99
92
86
74
81
108
91
70
103
75
76
103
79
70
84
102
104
103
81
85
80
94
95
100
105
72
84
108
79
78
101
77
72
90
81
83
85
77
76
94
81
108
103
74
71
92
86
75
81
99
74
109
70
74
104
84
83
80
81
72
94
80
91
99
71
70
105
93
103
101
87
87
101
85
73
79
79
99
83
108
102
82
91
99
70
89
95
105
92
84
97
74
80
103
106
89
109
80
102
88
87
109
100
98
100
78
105
96
86
84
77
81
88
90
94
93
71
83
84
108
75
93
101
82
78
92
89
87
85
97
96
84
92
108
107
71
86
88
105
99
77
70
75
90
103
109
90
85
82
73
103
109
97
81
83
74
88
94
88
108
92
104
72
97
79
82
92
94
98
98
72
73
83
98
109
94
90
98
79
105
95
90
72
76
102
82
84
81
109
101
103
81
77
101
84
78
79
72
80
71
73
100
70
82
81
103
99
79
106
106
85
89
101
78
104
72
81
104
81
94
78
105
94
103
94
89
101
108
101
109
85
73
98
102
83
94
87
93
101
75
102
84
92
71
84
102
93
99
99
97
96
106
82
75
94
76
103
91
84
91
96
90
85
101
102
89
79
84
76
108
100
107
103
80
92
82
109
81
105
99
83
79
91
85
106
82
85
80
89
75
72
83
81
109
70
107
109
108
74
109
88
101
102
78
108
70
77
89
80
87
98
73
73
98
96
103
77
102
84
93
100
74
80
100
104
80
82
107
102
88
100
97
76
71
108
94
78
79
71
93
108
105
90
76
103
80
81
103
108
88
107
90
79
87
102
101
92
83
79
101
105
92
93
72
72
82
87
97
92
90
98
102
74
102
71
70
75
75
93
102
94
103
75
70
83
90
73
104
109
108
71
104
104
72
101
74
107
103
101
72
71
88
86
99
74
86
107
101
77
106
75
85
84
99
74
74
79
92
80
83
100
101
89
78
104
108
93
71
78
101
72
75
79
103
92
70
75
82
109
90
78
94
101
106
102
101
98
102
76
84
93
79
89
77
92
109
91
81
99
70
97
100
86
82
75
90
98
93
101
97
93
101
94
78
82
101
107
84
81
73
89
90
103
99
108
77
106
78
81
94
104
88
75
77
81
77
76
102
81
97
97
107
83
70
84
106
90
96
100
88
105
101
95
86
70
81
99
100
74
72
98
83
109
85
76
87
71
75
73
77
90
98
79
104
70
93
104
90
109
89
88
74
81
104
86
73
82
87
73
106
108
77
85
97
80
101
109
82
82
85
91
70
92
104
86
73
97
89
108
71
107
74
88
97
81
75
77
74
99
94
100
71
88
75
98
87
83
96
102
87
97
91
105
89
70
107
103
101
89
91
85
72
93
81
108
77
89
94
101
82
81
70
108
76
102
75
98
101
109
85
78
109
76
101
84
94
98
90
89
85
103
99
86
86
81
94
83
71
72
97
77
88
85
79
107
104
95
101
77
92
77
93
102
84
99
83
92
94
87
86
77
104
75
73
93
96
96
83
77
85
88
92
78
108
101
97
78
84
105
89
98
75
77
88
109
76
94
92
96
73
93
87
83
86
77
85
90
78
98
94
75
82
96
94
71
70
82
107
96
70
101
95
106
98
92
70
108
102
85
98
89
101
75
77
106
103
70
78
78
104
104
89
101
75
105
72
97
79
101
78
78
80
76
78
92
81
90
71
75
97
96
99
86
92
83
80
82
76
92
102
73
95
96
82
74
74
89
106
84
86
100
82
75
106
100
103
89
81
95
82
89
94
103
72
96
93
84
95
100
108
96
99
90
106
84
74
75
94
89
84
87
99
89
103
85
106
78
106
96
89
75
105
86
75
83
88
102
89
102
83
72
87
91
102
106
105
74
104
79
79
105
94
82
87
82
109
92
82
99
79
83
82
78
82
107
107
74
93
105
94
90
85
85
102
84
95
72
85
100
102
79
94
82
95
95
105
81
83
97
106
106
78
87
74
89
102
104
107
85
109
104
70
94
74
100
72
98
109
93
84
89
74
107
90
106
96
99
105
85
107
84
104
90
70
86
76
106
101
108
109
101
73
76
97
99
77
93
109
95
89
80
105
97
77
98
83
90
89
89
71
78
107
76
86
101
104
80
93
74
70
88
80
72
89
93
102
73
101
71
93
98
92
106
81
99
95
108
90
75
82
86
76
84
100
98
92
82
100
108
87
81
82
100
92
96
93
106
101
89
89
98
81
91
76
99
70
89
72
75
86
84
99
109
103
86
85
93
80
73
98
91
89
104
82
95
90
107
109
76
102
97
98
103
105
81
97
98
103
98
80
92
79
92
75
92
73
94
72
70
84
74
106
100
99
109
84
105
104
75
96
82
74
107
104
94
99
70
93
104
109
94
86
82
94
93
76
91
89
75
75
84
95
109
83
96
94
98
96
99
73
87
95
93
88
77
83
78
105
105
86
100
79
109
75
90
106
70
92
76
87
102
71
80
98
106
103
95
105
94
72
109
82
79
98
108
104
81
82
96
82
107
102
87
93
96
71
103
99
87
92
84
91
93
84
82
107
105
84
96
76
88
98
94
77
107
97
104
74
78
71
107
79
82
99
88
71
77
90
95
98
88
92
94
102
73
106
73
92
90
75
108
79
98
104
79
97
91
84
105
103
76
72
72
78
79
70
96
70
101
100
106
101
73
83
87
95
98
105
94
85
109
100
90
99
107
104
103
95
103
82
78
79
106
78
71
105
82
70
78
73
72
92
74
79
90
107
90
71
105
104
88
77
91
70
91
96
107
83
71
78
103
85
88
88
90
105
71
80
91
101
75
72
71
100
84
109
91
106
77
100
108
72
72
100
90
107
70
76
74
96
86
70
107
83
94
108
75
72
80
89
83
105
71
108
96
106
99
73
108
105
80
96
101
81
109
98
75
81
100
97
72
81
85
103
99
101
73
82
101
77
84
94
104
91
73
76
93
95
108
74
93
88
100
107
74
83
104
80
103
105
108
102
93
84
100
82
79
82
104
91
88
70
96
103
108
107
82
104
84
98
82
72
102
86
81
83
109
78
97
77
108
75
87
76
81
82
74
102
72
92
108
101
76
108
95
82
77
81
97
97
103
85
83
76
104
77
70
106
108
89
103
89
108
70
93
105
92
91
96
91
100
73
84
82
82
95
70
97
109
100
79
102
109
78
103
109
105
91
108
71
73
70
106
77
102
76
77
79
94
79
77
74
76
90
89
106
80
87
96
92
91
86
99
79
86
102
103
75
107
97
90
99
107
91
84
87
89
83
80
102
96
93
106
82
81
79
75
108
71
75
75
105
71
101
70
85
89
101
91
87
100
79
105
77
90
97
106
82
103
100
85
77
80
95
102
75
81
96
105
96
72
101
103
74
88
90
72
86
96
75
98
72
78
92
80
93
102
88
79
75
79
87
109
76
103
99
82
94
94
77
76
86
97
107
85
78
88
101
72
93
82
96
101
78
95
82
80
92
95
71
73
76
97
92
79
107
86
74
94
90
95
93
91
79
76
102
77
78
70
101
71
95
71
91
75
90
89
103
97
72
93
79
96
84
77
98
108
107
99
100
81
79
76
105
87
74
79
77
78
89
90
84
92
102
87
77
109
107
107
84
98
100
104
97
93
92
107
99
92
98
72
88
100
102
76
89
95
95
84
106
105
95
76
88
88
89
91
102
106
81
77
81
92
85
80
107
80
75
99
93
94
107
92
104
102
78
89
101
76
79
106
91
93
88
77
106
98
80
81
102
107
93
103
70
102
101
93
77
96
73
109
105
98
99
79
82
72
95
90
77
102
96
88
74
75
93
99
106
83
76
106
77
104
93
105
91
89
75
72
89
93
78
106
70
74
76
72
79
89
105
103
96
84
77
88
109
91
109
87
80
91
76
102
90
80
92
107
79
92
103
87
101
97
83
80
86
99
109
81
87
98
93
88
88
71
75
81
84
76
80
89
91
97
89
70
95
100
95
77
83
72
90
83
99
74
95
88
79
88
87
105
106
74
98
101
107
70
84
107
89
71
95
106
108
101
105
96
106
75
104
79
79
93
75
85
97
72
74
99
107
102
97
72
79
90
89
95
82
98
79
94
74
99
89
88
99
88
70
78
83
94
94
105
99
82
90
107
71
92
85
103
96
72
99
78
104
82
72
100
92
82
77
106
97
104
86
77
80
82
96
102
108
100
73
84
71
87
72
79
71
101
71
78
102
108
109
107
107
89
89
101
99
79
92
87
76
88
79
87
99
98
109
82
108
78
82
78
74
101
108
88
72
76
72
86
79
75
96
96
89
104
84
75
109
72
95
93
92
105
107
104
76
89
95
89
90
83
72
88
85
92
86
85
73
89
89
105
90
84
107
99
89
86
95
84
83
102
75
77
104
83
106
87
106
87
109
83
71
76
91
75
88
108
103
96
107
99
73
78
86
79
87
109
93
84
100
90
109
97
90
101
82
71
85
100
102
91
72
71
75
97
76
101
91
75
93
72
78
107
96
109
84
78
90
103
75
97
75
91
91
104
107
102
80
92
75
78
88
93
95
71
86
97
98
96
94
92
107
109
90
96
102
102
76
102
94
87
84
102
98
81
109
108
94
73
75
84
108
71
88
102
90
90
104
77
93
107
88
109
102
103
94
107
100
104
109
90
83
70
80
107
107
90
90
84
108
76
83
108
72
102
70
78
89
96
80
84
78
109
75
94
88
86
76
92
89
77
105
80
87
93
71
87
94
104
107
73
92
105
80
86
104
75
105
84
93
81
87
95
100
72
85
81
80
74
90
90
102
77
94
96
76
99
105
82
89
90
104
82
86
79
90
82
99
70
90
81
101
78
77
70
95
75
71
91
79
91
81
101
106
94
93
91
90
87
85
94
94
96
81
80
91
101
96
88
98
104
89
100
82
101
90
80
95
78
73
86
75
74
72
70
77
97
78
81
79
107
76
88
84
98
102
83
82
85
91
79
92
103
102
70
75
95
70
101
93
81
106
106
78
101
81
109
71
86
97
97
101
94
95
91
76
80
94
74
107
70
75
79
89
92
73
103
88
100
80
78
96
84
92
71
96
93
90
89
97
85
102
108
83
96
75
101
77
82
107
70
94
96
96
73
105
103
97
102
81
93
105
75
73
87
101
92
87
107
77
99
106
71
76
81
74
81
83
78
103
72
99
70
76
99
82
101
93
81
104
75
87
104
105
91
103
82
102
89
101
101
88
91
106
82
108
81
81
73
86
103
98
90
95
99
92
103
80
106
84
80
100
88
89
95
96
79
74
85
103
79
90
109
100
87
74
96
94
92
88
72
99
72
95
89
78
108
87
76
83
97
78
70
102
98
79
72
70
78
90
97
79
70
76
73
88
82
89
87
106
73
95
86
99
72
77
83
106
98
84
98
107
73
92
97
85
76
82
77
107
89
104
100
88
93
101
75
70
98
103
81
104
72
95
107
94
72
76
105
97
76
107
97
104
83
109
83
75
76
96
101
94
96
99
88
80
85
93
74
92
72
77
109
95
74
103
87
92
103
85
84
100
75
92
73
82
94
73
83
102
98
76
88
72
82
107
75
80
77
106
78
75
75
106
82
81
103
95
91
108
102
95
106
99
79
80
75
104
75
97
104
71
79
83
77
105
87
73
79
88
94
86
70
83
76
94
98
76
86
96
101
104
100
106
85
78
95
102
93
76
98
83
108
78
82
103
94
97
73
92
74
103
71
72
108
100
74
74
76
105
104
73
71
94
74
87
107
85
108
86
73
84
90
74
78
83
93
79
90
95
77
92
86
95
97
105
79
77
102
85
96
79
77
98
71
71
72
93
70
103
85
97
85
97
83
99
86
86
93
84
89
77
70
90
74
70
84
104
79
88
79
103
78
80
92
76
79
91
93
108
85
101
91
78
91
107
103
72
108
86
76
101
100
97
90
85
109
101
87
109
84
91
78
88
70
106
93
102
101
73
89
93
72
95
93
93
105
73
107
72
88
84
82
98
105
92
89
77
105
100
75
96
79
95
75
81
80
86
89
88
107
99
70
94
95
101
100
79
105
93
90
76
106
72
95
107
97
102
108
106
93
99
103
74
94
100
101
73
92
76
96
83
96
79
89
106
74
95
88
83
106
93
82
98
83
82
90
73
76
103
99
109
105
98
108
74
106
89
109
104
107
92
105
78
99
70
109
94
81
76
80
89
108
82
107
84
89
90
99
91
107
102
77
77
93
104
73
80
100
88
98
71
99
70
101
73
70
96
80
108
108
94
93
81
95
108
70
82
93
104
107
81
100
100
82
83
97
94
95
77
106
79
101
77
77
97
107
109
104
76
90
75
107
83
86
108
91
98
83
91
96
99
74
76
80
81
100
86
109
108
94
104
101
95
85
75
106
78
92
88
105
92
92
84
78
92
76
81
88
86
105
87
80
84
71
91
80
109
88
70
74
74
93
105
70
88
99
95
96
85
95
109
73
94
70
109
85
72
70
73
78
102
89
86
95
107
99
102
83
88
81
75
86
80
100
73
92
105
71
107
97
102
101
81
88
75
95
96
97
81
93
99
85
83
82
88
75
104
85
94
80
73
93
70
82
85
100
87
94
84
88
95
83
97
94
94
79
99
87
109
104
77
80
71
93
85
93
94
86
74
78
106
73
98
84
78
103
90
77
107
78
71
102
73
96
109
73
107
108
86
80
90
107
93
104
109
78
92
81
72
87
106
77
98
109
89
103
75
83
95
94
78
99
75
90
83
103
99
95
80
72
108
80
73
83
105
109
86
73
87
71
76
93
89
83
87
108
71
94
78
72
108
72
95
77
104
76
84
80
91
103
94
76
100
87
90
102
97
94
105
92
79
79
92
90
101
88
95
77
108
104
102
76
81
83
94
100
86
92
85
106
109
106
84
94
103
86
75
94
77
92
70
88
93
72
87
85
102
91
101
106
79
86
107
73
85
78
91
104
100
88
77
71
73
103
82
88
85
76
78
106
76
70
78
78
103
98
102
102
70
76
86
74
98
95
94
70
90
105
79
89
84
99
76
78
79
71
73
88
86
83
98
98
95
109
96
101
109
95
104
77
99
77
84
102
75
92
70
82
78
93
105
95
108
91
82
87
78
98
72
104
74
88
80
109
78
88
108
84
105
92
77
98
87
75
78
84
91
108
91
71
90
90
82
90
101
104
72
98
71
79
79
102
88
109
71
85
105
80
91
77
81
92
93
101
104
89
84
101
90
96
77
108
70
71
88
74
103
76
93
72
90
70
79
84
97
74
79
97
80
77
76
79
70
93
73
87
71
101
71
81
103
96
101
73
97

