eil101
101
1 41 49
2 35 17
3 55 45
4 55 20
5 15 30
6 25 30
7 20 50
8 10 43
9 55 60
10 30 60
11 20 65
12 50 35
13 30 25
14 15 10
15 30 5
16 10 20
17 5 30
18 20 40
19 15 60
20 45 65
21 45 20
22 45 10
23 55 5
24 65 35
25 65 20
26 45 30
27 35 40
28 41 37
29 64 42
30 40 60
31 31 52
32 35 69
33 53 52
34 65 55
35 63 65
36 2 60
37 20 20
38 5 5
39 60 12
40 40 25
41 42 7
42 24 12
43 23 3
44 11 14
45 6 38
46 2 48
47 8 56
48 13 52
49 6 68
50 47 47
51 49 58
52 27 43
53 37 31
54 57 29
55 63 23
56 53 12
57 32 12
58 36 26
59 21 24
60 17 34
61 12 24
62 24 58
63 27 69
64 15 77
65 62 77
66 49 73
67 67 5
68 56 39
69 37 47
70 37 56
71 57 68
72 47 16
73 44 17
74 46 13
75 49 11
76 49 42
77 53 43
78 61 52
79 57 48
80 56 37
81 55 54
82 15 47
83 14 37
84 11 31
85 16 22
86 4 18
87 28 18
88 26 52
89 26 35
90 31 67
91 15 19
92 22 22
93 18 24
94 26 27
95 25 24
96 22 27
97 25 21
98 19 21
99 20 26
100 18 18
101 35 35
91
107
94
107
77
77
104
106
84
86
74
84
71
81
100
103
102
101
79
85
72
75
75
85
72
104
99
78
91
85
108
81
93
102
79
79
101
79
98
99
78
93
85
104
95
76
107
78
109
109
80
73
78
107
91
99
82
78
92
84
94
95
79
79
105
93
105
94
91
79
74
96
106
91
108
90
70
95
108
100
88
102
94
102
103
85
93
98
83
102
83
83
77
109
94
95
70
81
77
81
95
77
105
74
81
80
95
81
94
105
92
104
72
71
90
81
89
105
91
89
90
81
75
100
88
70
99
89
76
90
90
71
97
81
79
96
75
107
109
85
87
84
70
90
93
106
91
84
109
94
82
104
105
71
82
93
95
107
107
101
107
104
105
104
98
106
99
74
105
102
102
102
87
70
88
107
72
109
74
78
92
70
101
72
71
96
88
97
74
101
80
84
74
75
98
101
72
74
77
81
73
71
100
101
71
72
74
82
103
89
102
95
84
87
90
87
76
107
78
109
89
105
74
101
99
74
76
85
77
95
95
92
77
95
101
89
87
106
77
79
84
102
80
96
95
106
97
96
80
74
76
83
101
74
97
97
102
102
104
80
87
82
70
91
107
101
105
83
103
83
81
83
93
84
80
80
75
103
83
72
107
99
81
74
92
103
91
95
97
87
85
103
104
98
77
95
101
91
81
73
88
93
93
101
108
90
101
79
98
85
88
89
94
95
78
74
71
71
75
95
77
77
84
89
86
89
97
103
82
103
108
101
88
94
74
101
72
81
87
70
74
102
95
90
87
93
82
84
79
99
79
81
82
96
92
86
99
85
101
91
74
98
83
95
73
95
79
92
105
74
104
84
93
72
104
107
95
87
78
87
90
99
96
86
97
79
102
71
94
79
103
92
100
84
102
109
105
88
101
105
71
106
93
89
90
84
101
77
95
91
89
91
90
87
109
77
96
84
74
99
95
79
71
96
98
85
100
81
98
73
99
92
105
84
81
93
105
98
108
95
77
106
108
81
94
79
86
86
96
93
87
106
94
109
86
98
75
101
94
91
106
89
74
93
89
79
74
81
74
82
101
105
106
108
87
72
101
90
101
106
82
75
102
84
82
89
84
103
71
83
75
105
75
90
106
93
87
98
96
76
93
75
81
100
71
89
105
96
89
73
79
72
108
78
94
90
85
90
104
97
86
80
76
77
76
106
82
91
81
94
108
79
82
103
71
79
75
97
90
90
81
92
71
72
80
93
72
107
103
73
83
79
105
100
88
86
93
98
83
96
72
91
78
97
81
108
73
98
77
91
76
84
109
107
91
91
77
74
107
80
70
87
85
105
70
79
72
101
102
97
100
90
92
73
101
106
90
99
76
102
95
89
76
105
109
102
75
80
107
75
72
96
107
73
84
96
78
105
100
97
71
89
102
92
109
88
97
82
101
91
98
106
88
97
77
70
81
76
72
79
81
73
94
75
94
74
75
75
97
97
107
106
88
104
72
75
100
87
92
106
83
78
99
86
80
99
109
77
81
94
74
104
89
108
102
81
96
81
72
83
96
80
94
104
97
88
75
97
79
71
91
97
106
82
94
106
103
81
100
101
101
109
72
92
90
99
72
99
95
85
84
78
81
87
76
84
106
79
95
109
80
72
97
103
91
97
100
79
77
90
91
95
85
94
91
98
84
72
91
88
100
79
102
70
70
83
70
101
91
93
91
87
109
90
84
109
87
81
85
100
74
101
90
81
81
84
90
91
71
89
104
80
104
95
86
75
85
79
99
92
108
84
95
104
104
109
84
98
76
99
80
82
102
75
72
77
90
102
94
70
99
87
86
92
82
109
86
107
88
74
100
103
102
98
77
70
87
96
98
102
108
102
109
72
73
92
77
91
70
91
87
99
89
98
70
107
89
88
100
72
70
99
97
104
103
97
106
92
84
109
78
98
70
108
78
78
99
88
75
105
102
108
100
98
79
90
95
77
71
82
104
105
87
91
97
87
81
87
81
79
102
98
103
85
82
107
72
108
85
102
96
81
75
105
101
84
86
86
90
107
99
89
107
79
90
82
76
82
106
93
95
89
101
96
70
103
95
92
77
91
93
80
108
83
76
82
76
80
95
103
79
99
101
78
109
81
97
104
92
107
84
98
79
89
73
86
98
89
87
71
101
74
84
84
96
85
104
71
70
102
88
93
85
104
100
88
109
79
107
108
86
82
78
104
87
96
106
94
84
89
89
108
72
97
75
75
91
105
89
79
78
79
99
80
85
71
98
81
75
89
80
104
85
109
95
109
103
109
96
70
84
74
101
74
101
105
89
93
87
94
102
91
105
82
102
104
70
98
94
96
97
104
72
74
86
102
81
106
89
88
107
103
89
97
99
106
100
97
93
89
105
77
78
75
74
71
91
85
81
88
80
92
108
83
84
99
108
108
107
79
98
81
99
73
107
104
83
93
78
89
97
97
83
109
107
87
95
79
89
78
109
74
97
70
95
99
74
75
77
80
93
76
85
105
88
108
91
102
93
96
99
98
108
83
93
78
108
95
80
89
87
92
107
86
103
102
96
103
99
90
105
89
95
80
95
71
83
80
81
75
106
94
98
83
109
72
94
81
89
106
70
109
95
103
98
102
99
99
95
103
87
79
98
103
81
85
91
83
98
108
108
96
104
94
108
108
94
88
79
108
106
97
105
100
88
103
107
90
109
103
77
107
79
83
85
98
83
97
71
86
94
105
85
92
72
79
80
109
78
91
88
82
80
109
88
100
74
108
78
96
78
96
82
100
89
70
84
99
85
101
91
71
88
71
75
96
99
90
87
95
77
72
80
88
89
75
84
104
85
77
106
90
100
79
101
105
79
80
71
89
95
89
72
70
94
78
95
106
95
103
97
89
107
72
71
104
70
70
92
109
73
108
88
88
105
76
87
90
104
81
78
85
106
108
86
108
90
94
105
100
70
86
101
92
88
75
103
81
79
109
81
77
70
71
79
96
99
87
71
88
83
73
104
109
108
88
100
72
107
86
96
85
95
87
107
94
85
89
85
75
109
103
107
103
92
86
88
108
84
79
70
89
90
95
77
91
94
99
107
82
72
96
109
86
105
81
84
74
104
82
108
103
70
101
81
83
76
75
75
92
83
94
75
104
108
76
94
71
81
70
98
83
83
74
103
102
78
94
96
93
74
102
73
92
108
71
75
98
100
85
103
70
88
74
95
98
73
88
75
103
75
81
90
90
99
101
87
93
85
108
70
81
108
84
87
98
93
77
83
99
93
99
100
108
106
76
74
97
88
83
107
93
94
84
90
103
80
96
108
108
70
84
71
93
84
101
76
74
107
79
102
102
88
94
91
85
83
84
99
92
83
100
103
81
97
78
91
82
90
109
95
98
81
93
82
89
92
97
88
99
85
76
87
84
75
78
76
74
106
81
107
92
89
101
70
97
75
105
101
92
97
106
71
71
70
97
88
78
90
104
100
101
106
109
83
100
72
107
102
106
79
93
97
88
75
76
105
79
94
75
87
92
93
81
93
83
101
70
97
83
72
82
104
80
92
90
101
70
94
84
90
101
90
94
86
104
95
82
87
90
105
101
90
83
70
95
73
95
86
109
92
104
108
78
75
77
98
83
83
83
108
83
79
75
84
101
97
84
102
95
89
107
76
86
93
104
93
87
74
82
105
70
74
93
88
93
94
84
84
80
109
74
92
86
70
85
83
82
107
109
72
90
79
89
103
80
73
83
72
80
89
109
94
97
90
99
107
87
104
83
90
80
84
91
109
94
95
74
96
101
107
98
94
101
96
92
106
97
93
100
88
81
109
86
93
70
109
98
101
92
106
108
100
108
80
95
71
91
105
90
99
93
74
107
86
102
109
76
77
99
90
76
78
84
103
95
103
92
98
88
102
108
92
78
74
77
72
76
90
92
84
86
85
107
96
105
97
102
93
74
96
100
96
74
80
87
102
104
106
92
74
87
70
94
77
73
76
80
101
93
102
99
105
93
108
71
84
91
72
101
105
77
108
84
70
70
96
74
83
95
88
78
92
78
77
76
101
78
83
72
70
103
75
86
104
71
98
81
79
97
82
107
80
78
87
85
84
97
100
95
94
102
71
98
97
94
99
92
109
76
101
76
108
76
97
70
104
77
93
97
80
108
102
79
91
99
82
85
100
106
94
85
70
109
89
96
81
85
72
87
101
100
83
107
95
99
88
91
82
94
95
95
96
75
102
91
73
102
70
70
75
73
77
99
99
90
93
87
107
85
84
108
100
108
102
78
70
108
81
101
86
106
103
82
70
70
97
77
107
87
73
86
108
86
105
90
102
95
90
72
88
94
72
77
91
78
108
85
89
80
106
107
83
74
85
91
83
94
87
102
97
84
109
86
84
98
105
82
95
75
106
107
103
102
98
88
106
106
87
96
90
102
100
71
105
85
72
98
87
105
95
102
90
95
96
77
102
101
79
75
109
87
92
96
81
103
84
79
88
102
78
71
78
86
72
95
81
75
82
95
97
106
83
84
87
95
84
85
96
101
90
76
89
98
96
103
93
81
84
72
77
100
104
81
88
81
84
108
83
108
106
90
106
94
98
106
103
77
72
84
90
108
82
86
83
84
78
104
84
106
92
83
106
75
71
87
93
70
90
93
94
97
72
82
97
79
93
78
91
88
107
91
78
97
80
74
90
85
86
74
94
92
106
74
103
100
74
81
88
85
88
84
75
81
92
72
71
108
106
105
75
72
79
74
81
100
98
70
70
70
72
86
98
103
96
91
99
70
81
79
95
71
104
79
89
77
78
92
99
101
98
99
102
94
99
81
93
78
89
98
73
94
92
108
88
73
109
80
79
73
92
105
82
91
89
104
73
100
87
102
70
75
77
91
84
73
79
95
74
70
77
88
72
94
75
76
74
76
89
103
82
85
75
86
90
105
91
101
99
102
93
86
72
93
100
75
86
97
83
78
72
109
71
102
85
77
91
77
93
103
107
89
109
107
86
95
71
90
78
70
94
75
105
99
104
76
77
73
92
86
79
76
86
73
77
86
88
107
77
97
100
83
101
101
72
82
85
77
80
101
74
109
82
108
100
71
102
86
73
102
93
89
99
106
84
100
104
78
97
96
82
102
77
71
94
77
90
75
72
109
86
90
95
81
104
96
84
88
91
101
89
90
90
105
80
80
83
94
97
71
79
77
104
93
104
91
94
103
107
85
71
82
104
81
109
97
72
103
83
87
79
105
100
77
74
86
84
93
99
109
95
96
82
97
105
94
78
95
94
84
76
104
75
83
71
99
92
102
73
82
87
75
105
88
97
94
102
105
96
107
107
91
73
107
83
100
107
72
71
84
100
92
77
92
98
103
91
95
108
104
108
104
98
102
106
100
74
87
94
105
93
80
92
103
97
102
98
102
104
101
98
73
97
79
101
82
85
71
107
101
93
94
73
73
75
78
74
100
102
70
97
95
105
93
93
98
86
98
70
72
71
75
95
71
101
76
109
89
109
99
71
70
88
82
95
78
73
76
96
73
85
100
95
105
70
106
87
91
96
87
104
74
72
83
72
108
73
109
85
89
105
75
97
81
99
98
78
109
78
72
76
106
71
81
98
105
98
79
73
82
103
93
71
90
82
77
98
74
75
80
99
83
80
79
102
103
80
103
87
81
89
82
103
79
107
100
95
94
87
91
100
72
91
75
84
106
95
105
80
73
93
102
106
94
100
102
89
70
93
81
98
79
90
106
73
104
76
95
105
73
92
88
80
75
92
83
94
97
78
78
80
95
77
79
96
90
108
89
95
88
84
88
102
73
73
71
105
86
95
80
85
89
89
76
100
70
74
75
70
104
79
94
90
78
101
98
78
95
71
96
99
76
75
92
100
94
78
75
96
88
109
72
102
86
77
88
97
86
101
92
92
101
99
95
71
86
75
81
99
86
95
99
99
107
108
100
75
87
73
92
101
103
70
71
82
97
82
107
78
77
93
86
95
99
88
90
95
85
89
74
88
102
75
90
87
92
70
97
76
90
107
74
73
73
106
100
97
105
71
87
108
98
91
80
80
79
87
95
97
93
86
70
92
96
83
108
72
71
73
107
103
105
90
103
108
97
74
81
77
86
92
98
74
109
85
84
78
75
96
85
78
109
106
77
88
75
79
98
86
93
108
82
91
84
95
106
77
92
100
100
75
88
97
94
105
71
84
80
90
94
76
85
85
94
77
71
107
103
72
85
104
93
89
94
80
90
99
74
100
84
89
78
85
96
87
89
89
87
73
85
75
104
97
80
103
71
71
107
78
92
100
98
87
103
71
78
96
107
76
88
83
104
90
71
107
101
108
83
73
85
106
107
82
74
97
108
108
96
80
90
81
75
108
76
106
83
95
107
104
103
92
76
71
104
70
71
101
71
73
94
81
74
81
89
87
83
90
82
83
89
80
93
99
91
80
90
82
74
103
77
107
102
89
86
75
100
108
85
106
87
102
104
82
109
101
105
105
91
94
105
84
91
95
106
93
84
97
83
95
83
80
84
70
105
85
93
93
109
78
75
98
92
100
99
76
94
101
73
96
83
75
75
72
109
86
89
102
71
101
80
104
103
74
80
84
72
95
91
101
107
83
87
78
102
97
93
71
78
99
90
70
98
107
70
79
71
99
100
95
75
78
81
93
76
101
81
83
81
70
102
108
84
75
106
70
86
79
71
81
99
94
76
72
104
101
107
96
106
95
89
103
104
98
94
104
84
106
94
75
102
108
71
73
90
86
99
81
83
85
88
85
88
86
87
105
93
81
98
92
77
107
81
71
95
91
71
78
103
103
72
101
102
72
93
78
92
108
100
72
109
90
82
97
74
99
74
71
106
79
91
107
72
109
76
79
87
104
83
82
99
102
87
89
74
74
82
80
83
85
99
82
101
104
75
93
91
85
71
90
70
87
85
76
100
95
74
86
80
104
99
89
106
93
99
78
89
82
85
105
102
73
90
88
82
70
76
75
90
108
84
83
98
97
73
87
80
103
83
85
107
77
95
94
108
94
99
93
107
88
93
73
101
72
71
105
108
100
93
96
88
88
98
106
77
85
96
77
100
71
102
91
87
94
79
95
87
80
81
93
96
76
107
104
96
98
106
102
100
105
70
86
91
89
105
102
87
107
88
102
97
70
84
73
76
107
75
76
109
75
107
79
89
71
79
109
72
95
77
71
72
87
86
77
109
88
72
71
96
91
89
73
70
100
85
78
90
84
82
78
109
94
90
107
101
87
88
96
100
104
79
107
91
101
79
101
70
99
105
87
81
70
93
87
83
104
89
83
90
73
109
77
80
83
94
80
85
93
96
82
84
107
103
91
74
84
87
101
76
100
98
107
97
106
90
71
81
108
96
71
99
90
93
104
93
105
70
70
103
98
77
75
97
74
94
78
103
98
87
109
89
73
108
102
88
73
73
82
94
79
98
75
94
79
103
104
92
96
84
79
77
76
72
98
90
107
84
77
105
96
87
70
101
76
71
102
103
105
82
95
93
73
102
103
97
81
86
84
109
80
78
88
79
93
73
80
95
88
81
79
104
78
78
72
94
83
106
99
109
84
93
103
91
91
77
82
79
86
73
101
73
81
109
92
91
99
104
100
89
95
92
93
93
77
78
106
78
80
87
86
74
104
106
74
98
91
87
85
77
95
103
99
71
84
89
105
83
88
108
87
79
74
70
86
103
91
77
101
85
82
84
103
79
79
88
95
73
98
92
71
101
101
105
109
104
103
106
79
102
74
87
96
81
72
88
75
70
82
84
104
105
104
82
77
99
72
97
71
96
88
91
73
78
86
71
75
90
99
103
87
85
91
87
104
72
89
88
108
75
72
91
84
76
100
81
81
70
82
75
89
96
102
78
74
72
84
97
71
103
73
106
88
103
106
109
79
74
109
86
80
77
103
106
96
77
93
89
98
81
87
87
94
72
90
83
75
100
102
79
94
87
103
81
92
100
71
81
100
106
100
84
96
100
101
72
85
109
75
74
89
106
86
76
101
72
102
75
92
88
99
72
75
72
103
85
88
93
90
106
95
101
102
80
75
105
100
87
107
99
70
75
78
100
95
100
79
81
104
86
100
87
85
101
75
84
79
93
102
88
99
90
74
101
107
99
106
75
99
77
81
71
70
101
88
100
90
109
84
98
82
99
83
94
99
78
89
107
105
75
94
80
82
95
99
81
75
102
77
90
98
99
96
97
100
72
95
108
103
96
75
91
99
108
107
71
85
75
75
75
100
85
88
82
79
82
98
73
94
86
91
71
89
96
79
90
78
108
92
107
87
109
101
93
98
71
81
81
107
100
89
78
71
101
90
104
90
83
96
70
76
102
92
96
72
94
71
105
101
88
79
73
80
92
73
87
105
101
80
93
101
80
108
91
92
73
71
105
84
106
76
103
102
108
97
88
103
91
71
102
105
86
79
87
91
85
87
105
103
86
102
106
75
96
92
75
74
97
109
77
107
86
79
85
98
90
98
92
86
73
72
82
91
108
101
100
72
87
73
75
76
97
99
72
77
101
88
101
89
103
93
77
80
72
89
94
98
86
94
70
101
102
106
100
105
107
104
97
96
83
85
102
88
88
88
79
107
108
97
97
105
97
86
96
92
80
97
100
108
97
78
109
92
90
84
100
101
75
97
76
97
97
99
73
83
97
101
104
109
72
70
71
98
81
104
102
77
78
72
87
98
82
81
73
75
95
78
107
102
76
80
87
109
89
108
85
93
85
81
98
76
88
96
104
76
93
101
72
109
74
101
109
90
99
72
75
99
107
97
88
107
77
84
105
83
83
80
105
94
100
77
77
102
107
79
99
79
94
83
93
83
76
105
96
70
98
107
106
98
104
101
83
78
103
70
75
74
70
102
93
87
78
80
74
84
106
82
105
92
91
90
85
94
91
107
79
109
80
97
102
98
108
89
109
70
106
85
84
84
107
79
97
86
75
99
104
103
109
105
80
73
78
75
89
96
80
100
83
95
85
82
104
73
96
86
77
91
102
90
108
96
98
90
102
84
74
85
95
86
92
77
98
79
93
78
104
96
91
92
83
100
105
96
71
73
83
108
91
93
99
84
100
94
75
96
107
106
108
71
104
104
71
70
103
87
89
98
74
86
84
82
79
76
100
104
107
89
103
82
87
100
105
100
107
70
94
104
80
102
89
97
90
103
109
91
93
95
106
103
95
90
99
71
95
79
109
77
101
88
74
72
106
80
71
97
97
72
99
83
102
98
73
106
93
106
95
101
102
81
96
103
88
92
95
82
108
85
77
85
92
88
93
71
99
73
94
76
78
100
105
81
92
100
84
106
98
88
77
108
82
108
99
103
84
108
73
76
93
70
84
88
72
80
104
71
91
95
86
77
91
74
89
81
74
70
97
107
80
107
87
79
87
87
82
82
108
90
105
84
83
106
74
87
98
104
107
103
72
74
95
75
79
82
107
99
89
95
105
82
87
106
77
86
71
92
70
102
86
102
79
75
100
81
87
105
96
72
78
88
92
90
73
71
91
100
103
72
103
79
108
106
87
101
102
82
73
90
95
107
93
81
107
89
75
108
98
88
100
96
72
98
95
96
107
96
101
81
84
80
95
102
74
97
97
76
99
83
70
89
101
90
94
105
92
101
93
73
101
73
102
96
82
108
88
90
70
79
87
71
108
75
94
99
107
103
92
88
109
80
109
105
80
75
83
71
108
79
108
90
78
71
109
96
92
78
87
74
74
75
81
79
93
71
94
80
86
109
89
87
97
106
70
82
87
93
75
76
81
80
95
85
102
103
81
88
94
73
108
86
79
93
81
74
72
95
94
101
93
107
102
74
106
72
97
108
75
73
94
94
100
88
102
108
108
76
90
89
104
101
104
72
77
109
97
94
77
89
71
80
70
80
77
97
71
91
87
79
100
94
101
95
92
86
89
109
82
76
81
73
73
97
81
94
91
82
105
77
75
109
87
98
90
76
86
85
103
107
87
99
74
85
87
102
75
107
81
90
86
103
93
81
90
102
74
98
91
84
87
70
84
77
88
107
104
89
87
92
91
95
74
96
77
93
108
74
71
87
94
82
97
102
94
74
75
83
72
75
83
92
77
104
102
102
74
75
106
77
106
88
75
87
86
79
76
79
92
109
73
81
86
85
91
73
93
90
76
89
85
89
76
90
82
93
98
107
100
83
78
96
71
71
87
84
77
94
97
91
80
86
105
73
91
99
92
95
81
75
77
71
88
76
77
70
71
108
72
73
94
81
102
107
92
75
87
78
103
87
98
80
103
109
103
72
84
108
108
81
90
76
77
102
106
100
88
70
107
85
104
75
80
79
95
85
91
83
74
76
98
96
80
94
82
90
91
94
90
96
82
86
81
92
86
70
74
73
83
109
94
80
73
87
99
83
100
95
108
86
89
71
88
91
83
103
72
93
84
98
91
79
103
79
101
77
78
102
96
75
95
97
72
85
101
85
70
87
92
81
77
94
108
79
105
102
82
80
89
78
108
93
82
97
99
107
94
78
102
87
84
106
92
90
90
84
74
78
81
106
70
98
72
74
99
75
75
91
79
76
93
101
105
78
76
94
86
83
84
87
109
72
71
102
106
74
75
93
89
90
76
83
108
99
76
82
94
107
88
97
96
81
85
90
75
94
83
86
80
87
72
96
77
90
104
96
73
86
100
81
82
104
80
76
84
75
90
94
76
80
87
88
94
71
104
70
84
101
86
82
72
78
97
81
84
108
79
86
88
80
75
78
76
105
92
92
87
107
89
78
71
90
105
88
89
71
95
71
107
74
77
80
96
81
104
74
84
79
101
97
96
104
75
93
105
92
81
91
100
75
89
82
77
96
93
81
80
89
80
86
103
101
105
90
86
87
108
75
91
106
81
82
105
102
81
71
87
90
102
105
85
106
74
98
71
83
107
83
77
92
93
76
97
96
81
86
106
89
101
100
97
71
99
71
91
105
71
106
79
107
99
86
72
80
85
95
84
90
107
78
78
73
102
103
97
88
77
78
70
94
83
86
96
83
92
106
70
105
100
80
89
94
96
98
102
95
89
79
94
102
102
98
92
79
73
81
103
96
78
104
81
103
71
87
94
72
75
82
81
87
96
87
84
75
70
77
79
76
94
75
91
103
107
103
71
71
104
97
98
77
83
70
106
91
72
81
85
70
72
87
78
99
99
89
106
75
100
104
83
106
85
92
92
76
91
101
103
72
74
94
108
90
84
103
98
92
78
90
83
84
84
104
91
100
94
101
97
94
75
73
89
102
85
72
81
85
101
109
99
107
104
74
107
109
105
75
73
87
90
76
73
99
78
95
97
99
89
83
74
83
89
97
91
99
70
81
74
91
81
109
108
72
105
108
104
70
83
98
79
102
99
101
70
83
70
99
103
87
74
91
109
91
72
89
79

