ch150
150
1 37.4393516691 541.2090699418
2 612.1759508571 494.3166877396
3 38.1312338227 353.1484581781
4 53.4418081065 131.4849013650
5 143.0606355347 631.7200953923
6 689.9451267256 468.5354998742
7 112.7478815786 529.4177578260
8 141.4875865042 504.8184855710
9 661.0513901702 445.9375182115
10 98.7899036592 384.5926031158
11 697.3881696597 180.3962284275
12 536.4894189738 287.2279085051
13 192.4067320507 20.4394059310
14 282.7865258765 229.8001556189
15 240.8251726391 281.5141437200
16 246.9281323057 322.4613321160
17 649.7313216456 62.3331575282
18 352.9658562600 666.7873101942
19 633.3923676580 534.9398453712
20 488.3117994040 437.4869439948
21 141.4039286509 228.4325551488
22 17.3632612602 240.2407068508
23 397.5586451389 231.3591208928
24 565.7853781464 282.3858748974
25 475.8975387047 468.5392706317
26 322.4224566559 550.3165478233
27 397.5586634023 74.7588387765
28 672.8618339396 432.8826409630
29 571.2189680147 530.2616991530
30 104.6531165914 482.8224768783
31 356.7098388794 67.6477131712
32 400.4070255527 253.6794479997
33 282.3036243109 426.8380500923
34 58.7766988363 507.1712386832
35 189.7506224400 460.3815233617
36 659.9124120147 226.6284156239
37 639.0307636033 467.2302300719
38 415.0258357432 233.3045376118
39 547.2662016307 161.6589278401
40 616.6547902644 339.3409309407
41 494.8592427417 148.1217856389
42 629.9980812186 433.4548164038
43 471.1014312410 314.2219307579
44 138.2440514421 137.1679919735
45 91.5847556724 110.0203007516
46 390.6972811808 423.9774318385
47 565.1617825137 429.1598152874
48 54.5248980387 438.5515408431
49 334.3508329710 153.7969238040
50 531.0291024509 612.3874827889
51 475.7345905802 385.7844618897
52 228.8325218994 410.4461939615
53 578.3805347586 321.3303494537
54 358.9170574485 404.4670352898
55 486.4648554867 593.0429937016
56 343.1693707670 509.3123571315
57 530.3626972076 137.6881275684
58 498.8065475299 576.2102674608
59 224.3182715500 312.4677490415
60 595.8360732590 81.8130051356
61 661.5588724308 217.0456944477
62 43.6892045516 305.4722789165
63 79.4653452530 445.9641737689
64 210.4163247004 130.7151137038
65 432.2642292251 629.4092661116
66 623.2487161301 69.1892850840
67 436.5194739944 282.9356456070
68 59.4163265482 40.1280234442
69 630.9230074073 230.3429888130
70 579.3265539688 601.0359410602
71 117.8624507480 112.9796833705
72 297.7912565664 166.3131886803
73 22.7642703744 455.5340094037
74 259.7095810385 10.6199925885
75 342.3579873647 599.3880182608
76 10.0260950143 488.9310558282
77 315.2926064118 273.2275475579
78 220.7044919297 270.0819745721
79 192.1186059948 314.1839922798
80 271.5042718992 225.2921989972
81 530.7320005441 504.0670155337
82 42.5331441666 656.3645162886
83 396.1274792588 539.4648066027
84 118.6631474021 508.7129103929
85 395.6913876595 699.5376048429
86 559.0157105844 560.8866941411
87 22.6471035906 526.2470392816
88 135.6377085256 325.8409901555
89 141.4507014379 485.2477927763
90 396.7741299332 460.7557115283
91 87.7494562765 19.6170129082
92 350.4245639661 420.6531186835
93 216.7010817133 466.4816410995
94 130.9237737024 351.1491733079
95 72.6329856671 645.7852219213
96 144.6002949996 457.4224283926
97 212.3725077442 594.9216893413
98 49.9186786455 541.4350825349
99 656.6943525585 558.1109593509
100 176.5941623792 648.5239953299
101 500.3825200226 198.7428378322
102 634.3178678420 612.8291643194
103 59.7537372726 551.6321886765
104 15.2145765106 143.0441928532
105 283.0054378872 376.4439530184
106 146.5389000907 39.4231794338
107 101.8685605377 635.0986850180
108 588.1968537448 580.5946976921
109 457.2628632528 350.0164047376
110 537.4663680494 472.5842276692
111 269.3669098585 367.4763636538
112 239.9045383695 102.6297653390
113 88.4677500396 384.0507209275
114 658.9133693395 583.9575181023
115 97.7359146347 157.4558657632
116 506.6191384007 233.0022156094
117 500.2566898239 64.9136393489
118 594.4048565021 275.8741868990
119 66.2308146610 24.1317387604
120 598.4162993909 414.5557574275
121 172.3088330830 344.3963466366
122 299.4812851800 251.8295121320
123 303.8379894831 21.0526063790
124 197.8969269840 512.3888960980
125 56.0199567669 243.0663818382
126 255.5566183121 448.8651882442
127 608.4256112402 222.5421309272
128 70.2722703273 77.9227026433
129 398.2298999899 119.5576573860
130 635.4970237093 133.3225902609
131 378.3484559418 272.2907677147
132 484.8029663388 677.0730379436
133 278.8710882619 299.9308770828
134 381.6537300653 360.3337602785
135 557.6070707573 595.3185092281
136 249.0589749342 76.6595112599
137 562.9048787838 670.0382113114
138 398.5504365580 392.6493259144
139 590.8939720560 370.7414913742
140 558.2008003726 0.4198814512
141 461.4114714423 530.5254969413
142 354.7242881504 685.4045361900
143 193.6611295657 669.7432521028
144 352.3140807211 140.3273323662
145 308.4345709740 115.2054269847
146 299.5881370080 530.5889619020
147 334.2748764383 152.1494569394
148 690.9658585947 134.5793307203
149 48.0798124069 270.9680673720
150 91.6467647724 166.3541158474
109
92
71
77
79
76
86
106
87
93
109
94
77
108
96
97
90
100
106
85
101
85
73
86
76
84
105
100
104
108
102
107
101
91
102
90
88
104
94
108
89
108
92
84
91
86
93
108
98
100
88
96
93
70
106
102
107
85
99
89
82
108
89
70
78
94
107
102
88
104
97
109
95
72
75
90
99
71
87
88
79
107
87
77
86
104
98
97
82
71
81
97
97
71
108
93
73
100
95
78
101
109
80
84
105
98
82
103
74
86
78
109
82
73
96
75
74
90
72
95
72
83
91
70
100
84
81
89
94
77
96
109
106
94
97
107
78
81
105
101
83
91
99
82
90
71
83
76
81
76
70
104
70
80
73
102
100
84
87
82
100
89
95
90
101
99
93
80
79
70
80
82
92
87
92
96
72
100
73
78
106
102
99
76
84
94
91
82
96
78
94
71
83
73
93
84
71
101
85
84
99
88
87
103
109
89
99
96
99
88
80
75
86
105
71
82
73
109
81
106
73
98
86
98
108
100
72
92
103
107
103
79
99
87
102
84
79
73
102
79
76
92
98
89
85
100
90
84
77
78
107
78
70
72
79
89
103
106
82
82
70
101
85
105
78
107
86
80
82
80
103
88
75
71
85
72
78
96
100
80
90
80
82
101
88
97
81
85
99
92
97
70
91
100
94
97
109
77
101
109
77
93
108
106
79
89
83
90
97
75
78
79
101
99
92
89
70
92
85
94
81
89
87
95
71
103
97
89
95
100
100
89
105
96
79
84
104
83
98
102
96
104
78
96
73
80
83
88
89
106
89
108
81
81
75
86
89
70
72
79
70
72
100
109
101
90
87
87
104
100
84
83
96
76
101
109
83
78
85
83
97
97
70
86
90
109
100
100
82
74
90
108
71
74
75
73
106
82
100
75
84
76
80
90
108
97
99
108
70
109
84
97
109
99
109
78
108
91
92
87
106
106
71
96
92
73
107
77
103
80
70
104
95
92
70
83
89
78
73
71
72
94
86
108
70
88
76
106
96
94
106
87
80
102
87
106
93
85
91
96
109
108
85
85
70
107
70
70
74
83
77
76
73
96
101
82
107
70
77
91
94
91
102
70
92
86
106
108
97
79
90
108
108
87
81
83
100
89
96
74
85
97
105
91
82
91
96
85
101
79
70
96
77
92
88
106
104
83
80
84
89
102
90
87
91
80
74
75
103
94
76
88
90
87
76
86
91
80
103
91
75
107
89
91
102
80
88
93
105
92
81
83
101
98
90
90
75
72
72
91
79
107
82
105
98
77
77
91
75
70
106
109
94
88
85
98
88
88
70
85
98
106
85
73
100
83
82
84
107
77
99
107
78
87
82
82
101
99
70
108
107
109
88
106
86
88
73
71
76
74
107
91
73
75
85
101
78
106
106
87
92
73
100
101
73
83
92
70
82
90
94
103
106
101
75
100
82
74
87
104
74
72
77
102
94
97
71
105
84
86
90
97
85
108
73
95
83
93
105
76
98
74
93
109
97
71
75
97
83
103
86
85
73
90
101
72
82
84
108
83
86
88
98
92
87
101
91
107
81
71
87
83
100
97
83
85
88
98
86
98
104
102
78
104
73
79
100
71
85
74
93
84
91
79
74
70
106
92
91
95
94
89
104
92
97
97
88
97
78
71
109
87
74
71
95
87
100
103
72
100
78
85
72
76
84
107
83
87
109
89
79
100
80
89
90
87
81
97
108
79
91
92
96
88
80
106
97
108
79
106
83
95
94
77
103
99
88
76
91
105
80
92
81
81
87
97
71
100
91
90
71
80
72
99
71
76
75
72
108
101
93
73
83
96
76
96
97
72
104
91
91
82
77
94
96
96
84
81
93
75
95
82
89
108
109
84
91
93
106
88
72
99
99
90
90
86
81
88
93
85
108
71
76
100
89
71
107
95
103
103
86
83
102
107
74
99
105
93
98
97
94
107
70
101
76
80
70
83
108
101
109
80
75
72
92
85
95
101
76
79
71
85
81
102
88
85
91
100
77
104
94
97
95
71
84
109
70
72
105
85
70
101
96
82
77
95
77
70
93
74
74
72
109
106
77
98
108
102
82
89
105
85
77
76
108
70
99
81
73
92
82
109
87
90
102
107
84
91
85
102
75
77
101
98
80
95
100
104
107
97
88
96
76
106
73
92
86
104
84
98
86
83
81
99
86
107
95
82
93
100
70
95
82
103
93
108
97
83
77
79
108
91
78
90
94
97
89
79
84
75
101
104
77
102
102
78
108
105
75
104
107
107
71
79
74
95
106
72
72
78
80
81
96
77
91
87
88
90
92
87
87
73
88
107
93
76
73
96
88
98
82
78
100
95
79
95
98
101
92
108
100
96
101
92
71
72
78
78
90
99
108
74
78
82
108
75
71
77
106
103
75
97
100
82
80
88
104
95
82
73
83
73
85
98
108
81
104
108
73
105
107
78
96
97
98
84
88
71
98
81
105
108
100
99
81
93
72
94
97
103
92
92
104
71
100
99
94
72
76
95
83
94
108
98
104
75
99
97
70
96
79
97
102
95
84
82
74
78
92
90
98
78
93
93
97
77
89
84
89
73
74
99
91
78
76
72
84
82
88
104
93
86
86
84
106
80
74
109
93
95
91
75
75
94
80
76
79
109
91
83
102
76
107
79
107
97
92
94
76
100
90
90
109
81
94
75
75
102
87
84
99
102
85
98
92
85
99
74
99
101
75
98
94
72
94
76
82
71
76
71
96
82
88
94
102
89
95
84
106
106
75
104
93
100
84
70
85
92
70
70
107
78
104
105
87
86
100
73
96
71
107
96
89
92
83
92
80
77
91
105
72
92
85
80
105
105
109
95
103
99
74
80
73
88
91
71
106
78
100
94
93
90
73
91
93
74
106
84
75
86
87
74
83
84
70
84
81
109
83
93
88
81
87
97
91
106
100
75
88
72
79
83
105
97
71
71
93
91
78
79
71
92
70
101
77
90
109
101
84
95
92
89
81
104
92
80
75
94
90
72
88
100
101
89
101
97
77
108
106
89
70
84
84
71
94
108
77
102
107
82
81
72
72
82
107
70
74
85
80
82
102
99
105
105
77
79
95
93
106
83
106
90
99
76
106
87
87
78
98
95
96
107
82
73
96
104
76
92
96
73
73
103
87
94
93
80
88
70
88
76
103
99
102
71
93
101
74
76
106
84
94
78
107
80
94
72
108
76
102
90
79
83
96
93
101
81
99
73
77
92
81
77
99
84
87
95
107
97
98
101
86
93
80
91
76
98
93
77
91
77
87
104
78
99
76
92
106
98
99
84
93
99
96
73
71
71
108
92
70
104
108
99
101
89
104
94
100
72
87
82
102
83
105
85
78
89
77
75
84
91
109
89
103
107
86
96
107
91
92
84
85
104
78
70
108
97
102
87
91
83
84
85
84
79
83
75
103
102
83
84
83
83
73
104
76
74
108
82
78
88
89
89
105
75
82
86
85
99
106
77
72
90
108
104
78
88
109
72
96
81
78
77
88
83
103
104
100
106
97
103
73
95
90
73
105
105
78
106
80
98
76
97
92
85
79
73
107
70
102
93
90
91
71
95
83
73
95
82
70
83
92
94
91
70
79
93
94
96
100
76
77
75
76
107
94
84
93
88
92
81
104
105
108
99
108
106
99
103
73
86
90
75
103
88
101
80
88
84
96
90
91
74
90
88
82
99
95
80
95
71
73
90
106
86
79
97
70
101
89
85
109
92
106
100
73
85
70
90
85
88
70
78
107
109
98
80
87
73
87
80
83
77
97
80
84
90
90
77
77
82
84
82
108
107
99
85
74
77
71
94
86
79
73
77
76
109
99
91
73
100
85
100
82
97
85
92
102
71
86
88
74
87
77
102
76
77
72
71
90
72
71
99
91
98
96
94
78
89
78
82
105
94
105
109
101
76
108
93
89
91
99
97
75
77
91
97
70
88
79
81
97
94
103
105
108
81
76
89
81
83
74
76
96
77
76
106
82
94
79
83
83
102
88
88
98
108
79
84
99
77
104
75
95
102
103
89
73
76
108
86
77
105
87
89
108
90
102
91
107
71
77
86
101
82
109
94
78
75
88
86
105
76
84
77
92
89
78
74
99
106
89
70
90
108
71
74
87
76
94
105
87
86
71
103
71
101
108
106
94
76
103
95
90
108
91
104
80
87
93
101
88
77
82
72
96
100
80
78
96
109
109
83
109
108
93
109
82
97
106
100
108
109
100
96
77
95
76
107
99
80
75
88
90
99
72
85
103
73
82
101
94
83
107
89
71
90
102
96
92
92
98
100
103
79
94
79
81
83
95
78
86
75
97
77
71
93
99
92
96
74
86
96
99
71
79
84
76
77
82
105
95
95
105
107
95
98
86
87
72
73
94
74
95
74
86
108
81
98
98
109
97
88
84
70
102
97
73
99
92
96
74
79
82
105
82
96
84
102
83
85
97
73
87
102
104
83
107
75
94
76
86
88
75
92
83
71
71
105
82
78
103
74
86
98
108
76
83
100
102
91
94
107
84
83
106
82
71
79
80
92
72
97
86
94
95
108
75
107
86
71
74
101
93
74
77
75
71
86
92
102
85
72
79
88
97
102
96
71
78
94
100
102
78
83
107
70
92
88
86
107
75
90
104
97
70
97
104
73
98
96
87
70
105
86
109
77
88
84
80
84
83
95
88
106
80
96
92
96
89
106
105
86
102
75
109
89
98
95
95
100
77
82
73
76
74
109
104
73
73
83
75
81
104
76
91
87
94
105
74
92
88
72
95
85
87
75
96
94
81
108
73
108
71
92
109
81
72
77
89
92
108
76
97
95
84
99
70
85
79
85
77
107
104
99
102
94
86
103
98
70
76
104
94
98
90
109
88
92
107
93
104
86
82
71
89
101
70
93
88
101
101
78
84
85
80
99
70
92
100
98
91
99
89
90
103
109
94
87
77
70
108
103
92
72
81
99
92
107
80
82
106
93
96
106
72
96
98
96
72
92
87
107
74
77
89
76
84
78
81
88
98
109
97
105
102
73
82
73
73
74
81
89
83
95
102
82
72
94
101
74
100
80
104
73
72
98
77
108
84
76
84
105
103
91
108
84
94
73
70
106
89
96
89
108
76
91
80
70
77
102
105
96
97
87
80
85
84
76
75
75
80
79
79
74
77
80
99
104
75
73
107
108
84
88
104
105
109
104
102
86
78
73
78
76
72
73
77
103
78
91
85
88
95
95
98
74
100
106
96
85
85
96
83
104
81
103
102
97
93
78
104
89
108
93
77
108
104
103
97
71
88
109
106
93
106
93
70
83
99
91
82
74
85
94
108
85
96
79
108
84
77
93
79
97
102
92
84
97
90
72
91
100
88
92
81
96
105
88
73
75
107
82
72
104
107
108
80
85
82
103
80
106
84
94
73
92
93
94
76
98
101
84
90
88
94
88
108
90
83
80
77
83
99
88
84
87
70
81
70
78
79
103
75
91
83
80
96
83
105
98
101
97
90
99
88
73
107
71
82
91
73
86
104
75
92
108
109
71
103
109
70
89
86
80
86
78
81
75
98
101
97
96
104
100
97
94
92
96
79
91
99
107
74
81
108
75
85
86
75
72
101
104
72
102
96
105
95
92
95
104
81
84
94
96
99
92
81
108
86
92
73
75
103
90
86
81
79
98
71
71
94
90
105
75
83
109
77
106
104
85
85
94
76
78
79
83
104
89
90
102
70
95
105
96
70
79
87
95
91
90
74
101
70
84
98
101
89
77
76
84
79
73
82
77
98
109
109
72
77
99
86
99
84
96
97
80
96
99
107
89
95
89
109
98
91
71
73
87
90
71
109
78
70
80
94
93
85
71
103
103
84
98
98
107
80
70
78
78
109
70
98
90
75
72
89
78
109
83
70
88
84
108
73
104
91
81
83
87
92
85
78
96
84
101
81
94
98
82
91
95
77
104
101
71
79
102
101
80
108
80
104
72
80
90
104
107
104
77
102
90
71
86
82
108
100
109
73
77
106
92
94
101
81
105
76
82
91
101
82
72
73
102
104
79
86
105
105
102
92
108
82
71
70
92
74
83
102
98
90
87
80
99
87
87
95
96
102
82
95
83
95
70
98
76
77
78
94
91
109
97
87
78
85
109
105
109
95
83
105
76
77
85
77
89
87
109
80
79
75
96
107
90
85
91
97
107
104
92
81
94
107
92
81
75
79
108
96
98
72
70
77
83
106
109
95
100
70
104
93
108
93
90
103
88
76
94
92
75
104
73
101
91
92
104
74
90
97
100
92
75
94
83
98
86
104
97
80
77
83
79
92
96
81
75
75
93
75
79
101
92
78
94
100
98
95
84
82
93
83
78
107
80
96
83
72
86
88
73
86
92
79
82
95
98
98
72
79
99
106
71
90
78
98
98
100
83
93
97
97
90
76
73
102
80
103
100
71
91
81
75
107
97
105
74
101
108
94
107
100
80
98
101
109
96
107
85
103
78
78
102
95
90
101
86
86
109
90
73
72
109
84
89
109
75
90
70
93
84
93
99
88
102
75
97
101
107
73
88
84
74
73
75
92
76
93
75
73
93
82
79
89
84
96
99
86
100
89
102
73
75
88
96
85
107
77
92
97
88
86
98
74
97
79
72
73
82
77
90
72
81
71
80
83
103
102
71
93
74
103
74
88
81
79
75
89
72
78
84
99
76
87
75
99
81
87
78
92
90
108
75
92
96
96
107
71
80
86
79
74
86
100
75
74
86
89
99
86
92
89
92
106
90
71
76
86
99
106
100
95
93
75
92
108
108
70
96
107
93
95
82
77
96
103
80
87
98
103
80
99
81
108
105
102
89
107
84
107
86
87
82
72
75
74
103
87
107
72
96
73
103
82
81
78
79
105
90
79
100
96
107
103
109
87
109
79
88
78
83
74
76
103
105
105
100
80
107
79
95
103
74
71
94
70
91
109
101
89
72
90
101
109
98
92
89
84
103
85
72
70
105
107
107
98
88
72
104
85
89
107
102
106
70
71
105
100
88
90
88
96
90
80
77
101
80
97
101
96
87
72
97
107
87
94
92
71
79
71
78
98
72
83
73
74
85
87
82
75
72
77
105
85
80
89
76
89
74
86
97
109
102
73
107
95
84
99
87
103
103
85
72
79
80
79
87
79
93
81
103
92
108
70
80
81
91
78
106
97
90
107
108
99
75
94
86
79
104
74
100
81
102
90
76
100
81
103
98
96
73
84
105
102
107
101
85
75
106
77
94
108
79
88
72
90
95
72
89
86
84
84
107
86
87
93
98
71
76
83
88
102
102
96
88
82
101
83
79
92
77
104
105
107
106
101
75
97
72
104
93
73
87
103
99
93
87
96
84
83
96
75
82
88
86
101
107
72
91
78
79
92
93
109
76
101
105
106
86
72
72
108
74
91
90
101
93
71
96
90
81
94
86
103
80
87
88
75
76
103
76
96
93
106
105
94
108
107
78
79
105
96
71
70
88
98
107
76
89
91
73
107
104
73
77
87
90
90
109
106
97
96
80
71
89
95
105
73
84
100
97
93
75
81
91
76
103
70
92
70
79
82
75
92
90
107
109
92
103
106
99
82
99
90
96
93
91
106
78
72
91
105
97
98
86
98
102
88
94
104
77
81
87
84
92
91
95
100
86
100
73
78
93
83
90
102
91
72
91
100
103
98
72
74
94
71
96
92
80
105
71
88
76
71
104
72
94
81
79
102
73
105
78
71
96
70
102
83
97
82
96
100
92
86
92
78
72
93
82
86
95
79
80
101
91
87
107
95
97
70
97
102
85
105
79
85
70
97
94
106
83
74
75
75
70
78
87
109
104
82
92
73
77
98
98
104
105
80
80
96
100
83
71
95
98
70
83
95
86
77
75
91
80
88
108
81
92
89
105
88
85
96
78
92
89
89
84
72
87
100
95
92
87
86
95
95
73
102
76
78
88
91
102
77
72
84
83
109
78
95
98
87
103
86
95
96
92
70
88
70
92
106
96
106
106
89
82
102
105
83
72
97
109
81
100
81
83
78
80
104
92
96
97
89
94
91
105
101
100
80
108
90
104
106
91
91
94
82
96
77
106
92
73
89
76
81
104
94
106
102
90
89
79
76
71
87
91
97
106
90
108
88
73
91
107
100
103
87
74
75
80
100
108
97
77
93
93
90
73
101
108
76
82
105
86
83
76
73
102
95
91
96
81
108
103
89
70
96
77
109
78
75
92
98
80
106
77
102
89
99
94
109
90
96
88
71
98
78
104
86
85
85
75
78
109
109
86
77
80
87
101
101
98
73
74
80
101
86
88
100
103
86
104
71
75
90
108
108
73
107
83
78
98
99
84
101
71
91
86
79
98
103
71
80
71
71
83
93
84
79
88
94
95
74
79
74
103
82
94
96
101
107
92
74
92
73
108
108
79
87
70
70
90
81
90
86
93
100
103
82
100
101
75
85
81
71
91
79
70
105
77
90
94
71
108
98
100
71
85
84
102
87
71
107
90
70
80
103
98
88
102
103
101
70
106
80
70
77
76
70
73
93
91
106
90
93
91
101
80
101
101
85
99
109
97
85
82
100
103
81
104
99
103
107
95
107
101
96
101
100
73
94
95
79
94
73
75
71
81
84
82
91
84
86
70
87
84
85
104
109
80
103
94
109
75
102
99
84
76
100
79
84
100
96
104
96
103
103
89
91
102
86
98
82
76
103
104
79
80
91
78
79
107
95
100
102
74
106
104
73
94
77
91
101
99
83
101
79
77
83
82
99
90
108
71
88
75
73
104
75
108
102
76
108
71
106
83
86
108
100
94
75
101
82
73
87
87
104
77
107
82
94
96
102
100
78
73
79
99
108
94
85
82
103
72
98
94
95
90
94
73
78
70
88
87
108
81
98
87
86
96
86
100
88
98
75
93
91
80
101
90
103
75
84
104
77
100
107
102
78
106
100
89
96
95
98
85
99
76
95
77
86
94
71
76
96
89
92
101
76
101
92
89
107
86
72
103
88
88
78
104
81
73
89
99
82
105
79
70
94
97
84
79
80
88
70
74
78
100
80
84
96
79
98
71
96
103
97
78
82
82
83
100
77
105
70
88
107
85
89
108
86
96
99
102
83
78
98
86
83
75
79
81
88
94
81
102
77
70
87
79
97
100
98
98
93
98
81
80
83
106
95
77
74
74
82
90
96
70
77
80
103
103
73
78
91
106
72
92
98
100
98
72
93
101
99
81
87
98
92
107
107
72
96
91
75
78
107
91
94
82
102
71
89
102
70
73
74
84
102
82
80
72
82
91
103
78
78
107
75
83
85
97
75
104
94
76
80
76
108
80
78
81
94
101
74
98
78
107
92
92
77
72
79
75
79
70
95
109
99
86
106
93
94
89
82
105
80
89
106
101
79
99
71
75
83
80
97
107
82
76
82
104
92
86
102
91
105
81
84
100
98
99
92
86
102
92
105
75
102
81
97
96
83
98
90
97
94
88
87
96
80
100
108
90
107
107
86
98
105
94
103
75
75
90
80
72
109
90
71
94
80
102
108
109
72
102
86
74
95
87
108
89
105
82
73
97
98
105
103
104
93
91
71
105
79
106
79
98
99
99
109
83
78
78
84
100
102
95
76
103
103
84
79
78
102
87
81
86
89
86
88
92
70
82
109
102
100
93
96
85
95
95
99
73
80
90
88
102
100
108
108
94
100
70
104
72
85
75
94
87
88
91
73
102
93
89
96
90
99
89
76
96
107
93
88
81
71
82
81
90
108
87
77
73
71
78
105
70
72
94
93
94
104
104
91
94
104
80
89
86
85
71
107
107
79
71
108
73
97
70
78
105
102
94
80
88
105
92
87
96
101
96
97
75
95
108
102
108
105
89
79
105
88
79
92
78
105
75
72
83
87
93
96
74
96
74
108
81
81
72
85
95
102
96
96
101
86
81
97
97
103
99
108
75
70
104
103
82
90
90
100
95
74
81
94
85
83
91
90
94
78
105
104
106
90
88
106
84
70
93
93
77
81
101
85
77
78
84
85
94
90
100
103
84
96
104
105
74
87
105
74
87
82
81
91
81
80
78
80
80
101
89
89
94
89
88
92
85
104
89
78
91
97
104
90
90
98
99
81
90
77
83
83
98
100
86
92
84
98
91
98
98
77
109
94
70
94
84
105
86
75
104
73
71
72
87
101
97
97
81
93
84
91
107
77
97
76
81
83
100
71
103
87
88
84
73
91
100
96
81
75
109
73
73
79
84
85
74
79
89
76
76
94
96
82
71
105
99
97
106
98
72
95
89
104
109
84
100
97
81
79
102
83
108
105
84
88
90
90
95
104
75
82
90
91
79
83
72
79
81
101
80
78
81
90
107
100
70
76
96
96
92
107
101
81
98
83
96
83
71
93
78
81
87
101
109
85
88
108
93
102
74
71
93
89
94
88
91
108
109
76
75
71
93
84
76
100
104
71
78
104
109
72
73
106
107
108
91
91
75
71
96
95
94
103
95
91
95
81
82
79
73
75
94
95
92
106
76
84
93
93
95
96
99
74
70
98
81
79
109
70
97
75
95
73
109
78
87
76
100
94
104
86
91
91
72
79
98
94
108
106
81
77
73
75
106
90
79
74
80
94
82
86
73
104
100
109
88
82
101
99
70
93
84
97
98
91
107
96
70
94
70
70
100
80
76
72
73
90
98
105
97
105
100
74
75
109
85
99
70
108
96
72
84
71
104
71
78
75
93
81
80
91
104
95
79
92
82
104
72
89
80
80
75
96
97
106
79
84
90
74
87
76
106
92
78
85
98
105
103
83
72
75
89
78
76
94
97
82
89
82
88
79
104
70
102
75
74
80
102
76
85
98
100
107
81
95
77
77
107
78
94
108
98
78
72
109
96
83
82
107
74
95
71
100
84
84
98
74
87
73
95
93
109
100
100
79
94
80
96
97
99
95
74
92
83
73
85
98
85
101
91
85
101
86
72
96
98
90
80
77
88
72
83
79
97
96
87
106
89
88
103
71
74
99
100
92
93
108
89
75
82
84
83
98
82
104
96
91
91
87
71
93
92
91
81
99
74
77
78
82
106
94
107
81
79
107
74
84
70
96
75
90
105
73
74
89
73
77
89
101
71
108
103
72
101
106
89
103
104
100
96
73
80
91
75
78
108
71
78
109
104
85
99
102
80
108
89
89
81
100
82
71
86
88
73
88
105
78
75
92
90
85
109
86
77
70
79
93
87
94
80
101
73
74
90
95
96
108
87
108
108
94
99
95
95
84
92
99
81
95
80
82
82
103
70
97
95
96
72
96
97
104
94
70
106
96
71
100
89
82
108
89
80
82
93
70
92
79
80
107
92
92
87
106
102
98
82
89
71
97
85
70
82
86
98
71
74
95
82
87
99
77
80
72
78
81
103
101
99
82
86
102
100
94
88
82
79
95
89
104
101
80
102
95
97
96
100
95
99
78
83
71
85
102
76
97
109
82
81
106
93
109
85
86
71
100
76
84
85
78
107
77
88
85
99
107
72
86
90
104
83
85
91
100
105
100
103
76
87
78
92
79
106
87
109
98
71
87
98
86
72
78
105
88
98
90
101
90
109
70
86
89
75
93
73
94
77
96
98
81
98
93
103
98
81
89
95
98
98
94
82
106
72
80
106
89
73
100
107
108
89
107
103
98
107
94
78
78
82
106
100
80
95
86
90
109
84
98
74
70
105
90
109
79
84
83
103
73
94
102
86
82
76
99
86
90
83
79
81
90
72
81
85
105
78
97
78
87
81
99
78
85
75
99
82
76
85
96
95
94
73
70
84
98
109
86
74
91
83
89
74
99
70
94
77
108
71
96
74
88
73
91
99
73
82
104
73
107
75
71
90
89
98
108
87
85
78
77
75
76
90
84
89
82
86
96
101
105
90
80
102
88
92
107
74
82
84
73
99
75
78
71
96
106
96
97
87
92
85
80
105
86
89
78
87
85
94
96
92
81
102
100
106
71
90
98
106
86
98
88
70
92
78
88
74
106
92
101
98
109
107
102
101
103
72
98
91
77
79
85
90
74
84
98
71
93
82
89
92
70
76
90
109
94
98
107
87
95
87
87
106
98
96
96
94
80
71
102
109
83
97
80
80
102
84
90
100
82
77
72
70
82
82
82
77
81
91
104
103
91
102
80
103
81
76
94
93
73
102
91
102
70
107
89
93
99
70
101
74
70
92
70
90
90
91
94
80
77
106
70
91
92
92
95
79
76
70
70
104
83
108
96
93
77
95
95
73
75
98
75
96
81
93
84
80
79
105
94
101
75
92
102
82
100
72
93
100
98
96
107
97
92
74
86
74
98
107
90
77
93
79
83
70
107
96
73
70
71
82
83
108
97
108
72
92
98
89
97
93
74
88
91
72
94
96
108
85
92
104
92
72
80
70
78
92
84
71
78
86
108
103
85
78
72
97
99
82
77
104
76
75
78
71
95
91
87
86
91
79
107
70
90
74
94
72
91
107
93
96
98
88
100
96
91
106
80
74
95
106
87
85
86
109
109
108
70
84
81
92
90
87
71
77
71
92
70
98
99
106
108
108
86
82
89
76
94
104
106
88
101
103
87
72
70
99
79
81
97
107
82
89
90
70
80
100
72
76
72
87
93
73
91
107
106
86
106
109
109
105
76
83
93
78
85
105
109
86
84
100
79
102
84
95
75
75
86
101
80
77
108
102
82
81
96
109
85
100
94
81
89
108
72
107
102
89
73
103
98
84
100
87
89
95
70
92
100
102
105
86
109
76
106
86
89
89
93
90
103
98
95
89
89
105
93
95
73
79
107
107
70
103
103
96
70
85
104
81
86
71
73
80
72
91
106
88
76
105
89
81
82
98
92
109
70
105
82
105
101
105
107
109
80
95
86
104
103
89
90
85
104
87
78
107
72
73
108
100
80
82
83
99
75
99
85
108
104
107
73
95
83
109
82
77
73
91
87
70
76
74
108
106
107
101
72
70
93
86
97
82
71
75
109
81
85
102
106
96
70
103
73
74
91
85
102
75
96
91
107
92
76
104
78
78
102
98
104
107
73
91
95
89
81
92
78
88
70
81
107
87
96
78
98
98
100
97
72
94
95
71
83
88
95
99
96
91
98
92
108
104
105
103
71
107
101
93
86
91
102
79
80
82
72
78
108
94
102
71
105
96
107
96
109
75
79
100
98
71
94
77
70
86
96
83
90
94
92
95
109
73
70
101
106
97
75
106
71
96
107
74
87
71
70
101
83
93
82
82
76
98
108
101
84
101
76
101
94
75
86
81
83
89
70
85
95
84
100
95
83
78
104
79
108
84
88
102
91
102
80
102
70
102
81
90
80
85
109
95
101
82
82
84
80
100
101
102
80
98
105
103
104
73
96
87
70
86
72
92
95
109
98
70
81
81
103
70
105
101
76
73
85
90
88
71
100
90
108
96
101
93
82
97
70
97
80
91
103
103
79
94
70
75
87
108
99
93
86
96
70
102
81
105
88
77
82
74
88
99
98
76
79
83
104
77
78
86
91
99
102
77
101
84
103
73
72
96
86
72
101
97
81
104
107
105
109
105
77
93
82
102
72
89
76
93
107
92
86
71
79
93
74
82
105
70
92
109
93
88
104
83
85
72
97
75
107
72
92
79
76
105
83
77
77
79
70
83
90
109
95
94
108
107
93
99
75
77
84
87
109
78
83
109
86
109
78
103
96
95
76
71
76
109
76
86
82
103
76
108
94
104
106
105
83
84
78
107
108
88
87
105
81
98
70
72
103
89
88
76
75
85
71
89
96
73
99
74
103
96
101
106
70
86
109
73
76
81
93
81
92
80
101
97
88
98
80
90
96
106
87
73
84
98
100
92
86
78
106
73
75
98
75
75
75
78
74
85
102
97
74
100
98
84
94
73
107
96
83
108
106
90
75
103
82
102
75
74
78
83
96
98
102
78
109
96
108
88
71
87
82
84
77
86
79
84
82
87
74
75
94
94
109
89
84
78
101
98
93
81
105
72
100
95
90
98
107
81
106
109
70
77
79
74
70
101
90
96
98
107
83
92
81
104
80
78
106
86
86
101
88
98
95
78
80
86
108
81
93
93
85
76
102
73
78
100
94
73
108
97
76
71
73
82
100
106
108
81
70
94
85
96
109
93
79
83
75
88
103
104
83
94
100
85
87
81
103
97
75
76
85
102
97
97
74
109
79
107
73
98
78
80
73
81
84
97
82
90
109
109
89
89
93
106
103
97
105
77
89
81
102
109
76
103
98
75
103
85
82
76
101
90
100
98
99
82
86
96
95
96
78
108
82
107
91
74
72
102
84
95
77
109
88
107
89
109
77
99
87
99
77
77
107
80
94
101
82
91
105
88
71
95
86
71
107
94
101
102
84
71
104
101
106
108
87
79
78
79
92
82
99
78
72
86
89
76
86
73
87
74
71
98
98
94
93
84
76
99
83
70
86
89
85
105
88
71
77
81
80
85
101
71
90
87
100
95
88
71
82
94
98
97
102
78
79
94
107
92
100
73
102
105
92
78
107
105
105
100
88
73
106
104
82
84
109
100
87
79
87
72
92
83
106
80
72
107
86
85
80
87
91
73
92
81
86
101
106
70
91
85
90
78
73
95
82
95
92
103
74
71
103
79
99
97
80
109
75
75
104
93
100
101
91
89
71
92
85
86
98
71
86
97
106
82
80
90
109
81
70
80
70
79
95
108
70
97
91
74
105
92
85
86
80
78
106
75
93
83
97
74
84
102
75
105
95
99
109
82
90
74
75
93
105
95
88
80
95
96
75
86
73
103
76
95
98
97
88
95
104
78
89
96
70
97
105
108
91
98
80
77
99
74
85
80
77
95
81
83
85
105
82
90
91
100
70
72
75
87
70
83
102
76
86
89
90
73
82
82
85
71
74
86
79
73
73
97
105
94
107
99
72
83
78
85
95
91
74
73
108
96
91
105
81
71
71
107
94
86
75
100
85
73
75
82
86
70
106
78
108
102
102
98
80
77
79
79
93
99
97
91
107
92
89
104
104
77
101
96
100
72
102
96
83
82
106
91
104
98
101
89
72
101
97
95
93
88
70
105
101
109
75
92
106
99
93
105
91
95
79
87
90
79
91
89
103
80
96
80
70
109
85
97
100
100
77
74
79
76
75
81
103
98
95
95
88
100
81
83
105
109
94
89
98
82
106
84
81
92
101
89
94
87
104
71
72
74
73
84
87
97
93
73
83
88
102
105
85
80
85
86
100
86
98
109
107
82
73
107
90
70
103
95
89
80
70
106
108
73
94
84
83
87
93
105
73
79
87
84
88
95
105
99
91
76
74
99
101
95
75
93
88
101
97
73
103
87
73
98
104
103
91
99
92
101
90
72
90
89
107
95
91
81
83
104
87
93
86
76
87
89
70
90
100
91
89
104
105
86
70
95
76
94
81
103
99
84
109
78
84
100
73
83
77
94
78
103
78
98
96
87
99
72
91
107
71
70
104
106
85
83
95
98
80
100
103
90
102
92
85
75
80
82
74
79
94
77
72
72
89
99
101
92
72
83
89
103
103
71
77
89
85
71
108
74
76
73
86
108
95
93
99
104
71
81
93
91
70
72
97
90
88
104
96
107
71
83
104
70
78
86
96
109
71
105
93
80
73
71
102
83
100
95
86
92
96
105
99
103
93
101
107
77
75
80
87
85
86
88
106
89
82
107
83
76
85
107
73
74
85
92
78
105
79
81
96
87
106
84
92
108
76
85
83
97
99
101
98
97
86
90
85
103
109
77
92
104
86
107
80
90
74
90
79
101
71
101
78
82
95
72
95
81
81
87
84
79
94
85
74
95
87
89
105
96
77
102
75
72
90
74
91
96
94
79
96
96
100
81
74
107
70
103
77
95
109
109
99
78
78
89
87
104
105
85
95
77
92
84
81
85
80
88
82
98
75
92
90
97
70
102
92
85
86
103
85
108
88
85
107
94
81
97
88
99
93
109
71
85
89
88
94
78
82
101
76
98
103
88
77
80
76
107
99
77
105
81
72
106
107
89
98
96
89
108
78
105
89
90
96
104
76
98
89
75
87
105
82
79
76
109
72
102
96
90
72
85
94
76
93
73
100
103
104
75
77
92
104
80
79
92
82
94
109
97
106
84
71
99
99
82
89
97
75
81
97
97
107
76
85
90
109
71
93
79
102
79
76
103
71
74
85
83
79
88
92
103
83
74
98
84
104
74
101
101
79
100
72
89
99
75
102
73
104
86
85
99
108
76
88
70
90
95
93
70
108
93
81
98
105
100
89
84
104
79
82
105
76
108
99
74
80
97
81
74
77
102
107
89
105
99
96
105
74
93
94
71
100
70
92
91
71
107
98
91
92
90
71
101
105
75
75
84
75
70
87
93
108
85
89
99
86
91
84
71
87
94
104
100
109
81
109
98
91
94
102
89
108
98
92
89
103
80
72
95
76
106
70
106
87
85
94
103
82
93
76
90
72
105
82
78
87
72
101
103
101
85
109
77
71
71
89
92
101
91
91
82
82
70
103
89
83
109
82
86
102
88
80
96
93
95
94
93
99
91
82
81
94
80
96
81
78
97
86
95
76
109
74
102
94
89
106
97
83
78
93
95
90
84
96
90
88
79
75
72
97
89
85
105
70
80
93
83
96
89
75
90
108
77
95
91
104
83
96
91
101
87
87
76
93
105
77
88
94
81
105
105
72
98
87
88
92
84
94
100
70
70
89
109
92
75
72
105
87
85
87
103
73
88
96
83
87
80
109
82
74
109
96
70
73
86
102
107
97
84
73
83
87
88
70
80
85
72
71
88
91
78
97
77
96
105
96
85
81
80
81
95
90
84
104
88
91
94
76
101
76
97
104
98
100
104
91
74
70
99
74
103
101
94
85
85
82
99
103
90
83
90
105
105
70
93
90
87
103
73
104
109
78
81
82
87
92
101
89
84
104
84
99
72
77
102
74
70
102
85
93
74
84
84
70
102
103
73
84
99
108
87
89
90
86
71
79
99
96
104
70
70
106
92
73
97
98
109
82
105
108
79
107
84
93
96
102
95
77
70
71
91
91
88
105
109
109
104
102
78
104
71
100
72
93
98
92
91
101
75
84
87
102
74
95
82
78
86
75
108
87
78
76
96
100
101
79
70
83
102
73
88
83
84
81
90
72
94
100
77
77
88
88
77
82
93
98
90
78
108
76
84
70
105
105
107
86
93
75
109
71
104
87
89
98
70
87
75
76
96
97
89
99
85
86
102
80
73
101
93
77
92
88
73
89
85
104
90
97
81
85
98
106
103
96
72
100
70
85
77
73
105
99
101
86
73
78
97
89
108
71
75
100
101
89
89
81
92
95
101
71
72
77
76
91
74
108
78
74
91
91
70
102
104
90
98
71
109
80
85
100
96
71
99
107
104
94
77
77
70
88
70
93
98
91
92
75
105
100
91
92
109
88
103
100
86
94
104
70
88
84
91
106
100
71
103
105
92
79
109
78
105
106
99
94
87
103
98
73
76
70
71
81
85
102
79
74
81
95
103
82
98
98
75
75
97
94
77
71
81
76
96
108
95
92
101
104
72
105
86
70
84
99
74
105
74
92
80
97
99
70
71
92
107
98
109
70
86
75
70
84
87
93
80
94
103
104
100
99
108
106
96
97
104
91
107
101
108
106
80
88
84
89
103
99
108
77
72
92
91
104
106
97
71
74
75
76
106
77
96
72
84
72
79
91
104
71
91
77
91
96
89
96
82
97
104
88
100
81
70
84
89
84
81
70
72
83
74
104
79
91
97
95
78
100
109
92
77
109
83
88
80
103
105
88
103
79
75
90
107
79
77
79
78
79
82
90
83
96
101
71
94
106
102
87
100
87
96
99
70
79
80
103
74
109
96
81
99
89
85
90
90
80
86
77
109
97
94
85
87
97
108
100
95
74
81
105
102
71
105
73
91
83
85
105
105
83
80
83
92
97
105
104
96
90
81
77
107
90
86
104
76
79
70
101
107
107
80
100
74
78
95
85
109
107
105
71
70
89
79
77
76
102
102
107
101
71
102
95
90
107
103
83
74
88
101
90
81
85
92
105
98
91
84
88
107
70
99
89
96
88
79
96
75
103
83
83
90
78
76
92
105
90
84
85
90
102
87
100
98
89
76
87
101
101
102
73
93
76
108
78
71
78
94
75
87
94
73
82
94
70
92
84
88
104
76
95
91
95
109
75
92
101
82
71
108
102
95
105
108
108
84
102
76
93
101
95
106
90
96
109
81
73
78
94
104
86
86
81
101
101
79
94
81
98
100
105
94
109
77
72
78
104
75
107
70
91
99
108
91
75
104
87
100
78
106
91
72
82
83
97
105
102
76
102
97
105
91
84
99
82
88
101
94
71
104
98
85
74
82
73
83
97
80
77
85
93
72
75
80
109
107
82
102
76
102
74
82
80
71
97
92
93
98
105
81
81
93
70
82
73
72
70
81
84
89
90
79
70
79
109
105
80
78
90
92
94
75
83
70
73
104
103
79
70
81
107
81
102
80
92
100
88
86
108
77
76
76
108
71
73
105
97
82
106
92
98
99
76
100
104
93
75
77
79
95
77
71
84
85
71
82
87
91
79
108
75
103
105
103
84
103
86
92
88
83
98
100
97
108
85
89
74
101
85
80
88
81
90
74
75
109
106
75
109
80
85
82
74
72
76
106
73
78
85
81
74
109
106
71
80
102
107
81
73
88
105
87
107
71
85
106
81
74
88
99
102
97
108
88
74
71
91
103
83
100
79
80
102
87
73
77
70
82
93
102
100
93
94
99
71
88
79
105
86
91
82
81
100
81
75
109
98
108
79
84
92
74
106
104
93
81
79
78
108
71
108
102
83
85
92
92
93
100
86
86
73
105
78
86
76
77
91
106
91
104
97
91
105
95
71
75
70
75
92
74
73
109
94
106
96
87
107
98
93
92
99
104
74
82
85
98
80
71
74
87
93
106
95
74
93
76
71
103
74
94
104
88
94
76
84
106
96
75
91
108
86
103
95
80
82
72
96
93
88
86
97
100
79
106
75
74
94
87
104
101
96
81
107
90
99
93
70
78
102
105
92
99
97
93
72
70
73
99
86
71
76
98
88
105
90
89
107
74
84
74
76
101
81
109
77
102
95
71
108
93
88
82
70
87
101
79
88
82
78
89
78
80
75
100
96
109
93
94
97
76
80
109
81
86
77
89
70
77
99
74
79
89
86
109
73
72
91
76
93
83
74
100
90
79
109
83
103
73
88
97
92
102
90
86
81
82
91
85
102
95
86
71
85
96
105
83
94
94
98
76
81
83
109
83
89
101
91
71
87
109
93
99
108
73
73
95
107
71
108
73
94
91
89
109
88
83
73
82
75
104
107
80
75
80
78
103
107
106
85
89
70
81
98
99
104
85
70
71
87
86
95
78
84
99
91
100
102
82
93
100
81
80
86
87
91
83
77
87
71
102
106
80
86
77
95
81
82
90
96
95
109
71
77
91
106
109
109
101
89
92
86
73
89
108
106
81
73
92
91
75
71
104
107
76
109
72
101
93
73
71
88
86
84
74
77
88
94
98
87
71
80
107
91
79
97
85
96
78
85
98
72
107
106
90
95
78
85
100
100
104
101
102
94
92
102
86
88
78
82
97
72
98
98
93
77
88
75
83
71
87
79
79
83
104
105
82
87
101
85
71
107
105
70
109
105
89
90
85
94
84
108
84
81
79
105
107
75
84
93
85
80
91
95
105
85
89
82
73
82
73
93
98
82
105
101
85
89
102
89
93
70
90
70
90
73
109
84
77
86
73
73
85
98
75
109
97
77
95
70
87
105
83
77
109
99
78
96
94
87
90
89
71
105
105
79
82
73
108
75
106
102
97
102
81
102
86
81
79
92
97
109
91
108
105
101
103
76
107
88
71
91
94
83
98
78
88
94
85
72
76
70
108
82
75
92
98
83
84
83
106
106
79
72
95
98
78
77
97
93
93
102
106
100
88
95
88
86
79
101
83
103
70
109
105
106
96
83
80
106
101
76
108
86
73
109
97
76
87
85
108
71
78
104
109
99
90
94
103
80
70
75
75
93
89
88
98
72
103
83
90
83
106
98
99
72
80
109
74
97
94
77
94
105
85
95
89
103
100
94
73
101
86
80
103
75
102
104
95
89
72
92
82
85
74
71
96
98
107
89
106
106
98
85
95
84
90
108
102
81
108
97
84
108
78
84
77
81
83
91
96
80
91
102
70
73
101
105
91
97
90
88
81
70
99
109
81
72
78
70
75
73
84
109
72
102
103
88
102
94
98
90
76
83
81
97
87
94
100
106
76
96
70
105
70
102
106
102
107
76
104
84
74
102
84
100
87
83
95
82
98
107
107
77
109
82
89
93
101
101
78
88
75
77
101
70
91
73
94
94
76
97
80
96
89
105
90
77
87
106
89
107
97
95
109
101
81
70
76
74
72
85
83
93
79
80
90
70
78
80
103
95
77
70
70
73
105
97
72
79
82
108
82
91
83
83
72
88
105
79
80
81
71
79
91
104
73
98
74
97
96
83
102
95
70
108
99
87
90
78
93
84
78
104
84
107
79
94
92
88
109
92
96
72
107
83
87
73
73
90
87
78
89
89
90
80
94
91
86
74
84
106
90
107
108
71
70
81
86
81
81
76
92
70
73
88
92
96
79
72
103
90
104
103
96
91
83
104
71
90
96
90
94
99
86
100
107
80
104
95
72
76
88
99
72
100
109
106
90
79
89
77
74
79
94
99
71
96
98
81
103
81
80
103
90
89
73
95
109
76
99
107
85
78
105
87
103
103
75
85
77
87
79
88
76
107
104
91
84
81
94
82
71
97
86
97
70
77
76
84
72
91
102
79
76
87
74
71
98
86
91
104
101
89
88
105
83
94
78
85
88
94
95
83
95
74
74
80
75
79
77
75
85
84
81
105
95
73
93
75
81
98
101
109
89
108
108
96
88
72
104
90
83
70
94
108
79
75
109
76
105
94
86
108
84
95
92
91
100
81
73
83
83
83
98
91
106
73
76
109
91
104
79
82
92
73
81
109
95
101
94
93
87
83
79
79
85
85
96
92
92
90
103
79
98
88
90
90
104
95
103
96
84
78
106
78
101
88
99
70
86
103
70
84
87
85
103
101
104
102
77
76
71
106
70
71
76
73
75
89
99
80
94
82
98
83
89
84
92
107
89
95
101
106
99
79
79
109
102
100
108
82
89
75
101
81
78
99
90
95
79
90
91
105
79
89
86
103
85
93
106
73
77
72
108
94
71
88
72
98
100
94
82
79
70
89
77
72
95
75
108
106
85
108
103
76
84
103
89
97
85
98
79
75
78
81
91
74
90
109
90
109
74
81
98
104
107
70
89
71
98
87
98
106
102
103
73
73
109
90
80
106
81
90
75
104
76
75
90
102
98
88
108
109
87
95
108
107
96
82
71
101
86
104
107
86
72
84
103
103
96
84
70
89
90
76
109
81
96
108
80
76
105
80
80
84
99
94
96
105
102
93
88
91
107
84
81
86
109
97
105
103
103
99
98
103
79
82
95
102
97
101
78
105
70
76
76
79
71
96
93
105
100
87
83
104
74
101
82
83
109
95
81
97
82
73
91
107
80
107
87
86
95
95
76
88
98
70
97
88
97
92
76
83
107
89
98
85
82
89
95
85
95
102
70
84
103
77
106
94
70
71
70
105
83
88
82
79
76
85
79
79
92
81
78
89
73
105
107
97
107
90
96
91
75
103
71
96
104
87
95
72
71
94
84
81
108
98
88
78
76
105
94
107
109
73
72
72
72
89
103
85
102
102
108
93
97
104
77
102
84
87
98
104
86
79
80
91
74
76
93
78
90
82
77
101
86
99
93
91
80
103
70
97
106
103
93
109
98
75
80
70
92
101
91
94
96
85
99
106
102
109
91
95
95
88
70
109
94
87
76
104
87
93
80
84
79
84
73
81
101
70
80
71
95
73
97
84
79
101
94
92
79
87
80
80
82
91
79
90
86
93
108
87
103
97
109
86
78
85
73
81
98
107
76
106
77
91
85
104
82
80
103
105
85
97
85
97
100
83
97
92
76
109
70
105
96
93
84
105
94
97
93
94
105
73
86
78
78
91
87
106
105
78
103
74
72
91
74
108
84
88
108
76
107
96
82
78
80
72
95
82
71
98
100
80
75
103
100
76
75
73
95
99
101
87
93
79
73
93
94
70
106
83
79
98
104
108
80
93
97
74
100
92
97
71
80
86
96
87
71
108
107
101
77
90
101
92
99
87
103
103
74
98
78
90
108
93
77
106
79
79
90
82
83
93
85
73
71
104
86
88
79
93
78
104
104
72
82
91
71
90
83
81
79
78
89
103
105
94
89
91
105
75
76
90
102
93
74
86
82
103
71
106
83
87
85
80
74
77
74
86
106
90
92
83
91
106
106
104
79
101
84
85
108
74
70
89
92
77
81
87
73
99
74
101
93
91
95
102
73
80
95
99
84
76
106
77
94
71
73
71
86
73
103
81
81
76
88
71
100
109
104
100
108
108
96
97
75
73
92
99
86
90
105
84
85
83
101
72
90
109
95
82
86
82
81
80
96
88
90
109
103
76
105
77
98
96
95
94
70
72
77
78
104
98
70
95
76
77
102
74
78
75
107
75
70
81
74
105
89
70
77
81
77
74
76
107
85
106
90
101
78
81
81
102
105
97
96
86
107
74
84
93
97
82
93
73
71
102
99
75
99
71
88
84
70
81
87
84
107
104
102
92
99
92
72
93
79
70
78
104
80
83
79
95
108
73
93
75
81
80
107
80
103
107
76
86
89
79
76
106
93
91
85
76
92
96
75
74
100
98
89
109
84
104
104
98
79
89
76
99
84
88
74
95
93
81
95
80
104
100
107
83
83
90
78
94
91
93
81
101
102
101
96
109
70
96
102
108
81
106
82
80
104
101
88
80
85
82
75
96
73
89
82
89
100
77
73
96
102
84
74
109
109
78
107
72
88
100
73
95
76
99
77
82
93
96
78
83
71
70
96
88
93
77
75
75
82
70
79
84
102
109
70
76
107
78
98
78
72
91
98
74
94
108
71
97
106
80
83
80
90
100
92
102
84
74
70
104
83
91
87
104
74
71
70
97
70
108
102
87
104
70
104
100
96
94
79
93
104
86
104
79
72
92
73
76
93
109
105
74
72
100
81
102
100
83
105
109
104
73
70
83
102
84
107
87
106
73
93
103
87
90
100
88
87
79
94
97
106
80
86
104
73
74
86
85
106
96
88
86
87
100
99
82
90
86
99
74
92
100
74
101
87
83
87
91
96
101
92
92
105
99
92
90
77
108
84
100
78
87
90
93
100
94
75
84
102
84
81
93
102
104
109
80
80
98
89
88
83
85
98
71
107
77
84
88
78
100
86
93
94
80
79
106
102
86
97
74
89
77
84
88
103
76
87
96
97
86
99
80
95
80
72
97
88
95
100
74
106
103
97
103
90
98
87
102
71
94
82
74
106
82
101
107
80
73
78
102
91
96
84
105
78
93
87
74
72
73
95
96
74
87
103
74
92
101
83
103
101
83
80
78
74
90
107
94
97
95
108
72
94
71
84
84
70
101
94
90
106
98
82
99
70
108
71
70
99
106
106
78
81
87
82
76
81
102
94
90
98
85
73
80
82
92
84
98
96
79
101
81
95
82
103
89
94
78
106
91
78
97
84
100
107
98
80
86
87
85
102
85
75
83
83
108
95
95
75
97
108
92
76
79
71
99
85
75
89
83
70
105
94
97
106
71
91
91
98
98
99
72
92
88
83
91
92
70
76
79
89
91
89
84
92
100
74
106
76
89
73
86
102
80
107
91
75
81
96
75
89
82
78
70
95
100
107
106
83
93
74
84
87
95
73
94
84
73
88
98
109
100
108
85
71
89
108
103
95
73
84
90
93
85
97
97
95
87
91
107
97
105
98
72
92
76
74
107
100
76
97
80
87
74
99
97
83
106
99
92
95
79
101
79
100
107
81
78
85
83
91
100
85
82
73
88
80
100
93
82
101
78
100
95
90
93
94
97
89
84
86
98
105
74
108
98
104
100
105
79
104
70
83
93
79
87
82
95
92
94
98
100
78
96
74
85
87
76
84
93
81
80
86
82
80
76
105
100
88
96
80
92
96
82
90
79
96
82
108
83
70
82
81
88
71
80
99
90
93
70
71
71
92
84
75
84
105
76
91
101
109
71
93
84
70
70
82
74
86
91
86
92
81
80
97
95
97
96
103
95
100
85
85
101
81
82
77
79
70
98
84
92
102
89
81
96
73
74
81
101
84
96
89
107
98
88
84
89
107
70
70
84
101
72
87
79
72
97
84
76
94
70
98
82
83
70
92
72
89
101
96
72
103
98
101
80
99
74
104
93
77
92
71
72
102
103
101
86
82
72
87
82
98
89
102
86
76
70
70
99
94
97
95
109
89
73
98
74
91
70
86
83
104
73
83
100
106
82
94
81
78
89
79
98
72
105
96
81
82
105
79
97
97
109
85
81
97
101
96
73
106
93
93
77
99
93
74
79
102
97
108
90
76
107
84
92
82
71
71
75
100
72
70
107
97
97
91
71
87
87
78
87
81
109
103
72
94
104
76
82
84
84
85
94
108
102
94
103
80
75
93
107
98
89
85
105
79
77
74
85
108
109
101
105
87
71
82
103
106
73
105
109
83
83
106
87
103
90
93
107
80
78
88
73
109
78
90
90
82
90
72
91
87
73
93
106
101
84
80
72
93
74
88
87
99
70
91
85
92
95
104
74
84
70
81
79
100
109
78
87
90
102
109
106
88
97
78
72
89
98
71
99
105
99
75
104
85
93
104
104
100
77
72
73
92
85
96
90
95
80
72
79
71
82
91
106
96
79
104
75
101
83
103
73
102
82
96
89
96
105
88
78
70
100
109
75
78
73
85
101
79
77
90
83
98
94
73
106
70
105
106
84
104
93
106
82
75
96
72
98
93
88
93
74
74
100
103
77
100
92
80
101
91
70
82
91
98
91
86
99
106
89
86
75
91
98
79
93
96
85
98
74
106
100
85
74
80
93
78
106
78
101
104
77
91
74
105
86
103
79
107
100
101
94
106
103
93
89
77
83
109
73
88
82
73
99
105
71
89
88
98
72
106
76
102
107
88
89
87
77
106
84
80
70
70
80
79
89
78
98
101
99
99
85
72
90
98
87
97
96
92
83
90
87
98
80
98
71
72
91
