st70
70
1 64 96
2 80 39
3 69 23
4 72 42
5 48 67
6 58 43
7 81 34
8 79 17
9 30 23
10 42 67
11 7 76
12 29 51
13 78 92
14 64 8
15 95 57
16 57 91
17 40 35
18 68 40
19 92 34
20 62 1
21 28 43
22 76 73
23 67 88
24 93 54
25 6 8
26 87 18
27 30 9
28 77 13
29 78 94
30 55 3
31 82 88
32 73 28
33 20 55
34 27 43
35 95 86
36 67 99
37 48 83
38 75 81
39 8 19
40 20 18
41 54 38
42 63 36
43 44 33
44 52 18
45 12 13
46 25 5
47 58 85
48 5 67
49 90 9
50 41 76
51 25 76
52 37 64
53 56 63
54 10 55
55 98 7
56 16 74
57 89 60
58 48 82
59 81 76
60 29 60
61 17 22
62 5 45
63 79 70
64 9 100
65 17 82
66 74 67
67 10 68
68 48 19
69 83 86
70 84 94
105
94
94
104
84
93
91
74
72
87
83
76
104
72
91
104
81
80
87
99
97
99
107
109
106
76
83
106
103
99
86
72
70
108
97
81
103
98
89
99
76
75
99
79
73
70
79
103
77
83
106
75
89
74
107
94
105
102
105
100
105
75
90
79
106
94
79
74
93
100
78
93
80
86
72
74
102
91
109
104
107
94
92
70
81
74
80
106
100
91
103
107
77
94
84
91
77
84
104
81
72
108
108
78
84
71
98
79
98
79
101
90
76
82
70
92
72
107
97
74
84
82
71
87
82
85
108
70
94
103
108
104
78
80
106
103
89
102
97
84
107
74
79
78
104
78
79
85
94
93
93
94
89
91
87
103
73
87
74
86
102
70
91
77
95
91
80
72
79
75
102
106
105
77
75
85
86
106
94
104
77
81
70
102
98
95
97
109
89
101
103
100
76
106
109
89
92
74
70
97
93
79
87
89
78
79
81
93
79
94
77
71
82
86
75
106
71
93
84
103
91
78
81
72
81
105
75
75
101
79
100
82
76
81
85
96
103
81
82
70
82
83
91
96
104
77
76
81
89
85
72
102
87
82
73
73
93
101
91
77
89
97
74
74
91
89
104
89
94
97
76
74
72
97
96
99
85
93
81
109
72
79
109
106
108
105
79
97
79
70
70
109
104
81
80
90
83
88
81
106
83
106
104
79
80
70
100
90
89
86
90
84
75
92
75
90
106
84
76
94
96
106
109
92
92
109
102
82
76
77
86
108
86
105
103
95
107
100
87
84
101
72
72
87
99
83
98
88
90
106
78
105
71
91
94
74
82
87
100
98
109
88
81
71
94
88
71
88
104
82
97
88
105
100
89
85
87
109
82
106
108
107
95
106
108
81
83
87
77
103
83
74
95
106
89
91
99
102
82
82
72
89
106
95
100
81
94
80
88
105
91
73
71
96
101
97
81
74
107
82
91
100
97
81
73
90
101
103
94
83
94
71
75
95
98
89
71
79
96
86
94
87
109
109
92
104
82
94
92
96
109
100
108
94
79
88
91
88
79
76
71
95
93
101
96
94
73
102
105
103
85
88
80
71
104
86
107
99
77
96
85
75
99
94
89
85
102
87
79
85
94
90
85
99
94
70
96
78
88
85
75
88
87
94
94
90
93
91
83
106
102
80
101
97
76
78
106
82
76
94
75
96
90
89
97
95
105
88
74
109
77
104
84
90
76
104
105
71
74
78
92
99
108
70
108
84
104
76
102
108
83
93
71
73
83
105
106
89
94
84
95
101
105
77
85
94
86
78
89
86
80
85
87
97
97
90
97
75
79
98
70
91
90
83
76
104
89
74
97
107
109
105
102
94
77
93
70
99
100
79
85
88
96
105
92
81
84
83
76
103
105
78
105
95
80
106
82
86
100
75
93
100
86
97
96
78
88
104
78
73
101
84
86
100
104
89
98
77
93
99
71
70
70
106
80
105
95
72
96
74
92
109
95
101
73
82
101
103
89
85
109
73
99
101
76
74
82
79
82
100
100
88
71
91
78
84
106
89
102
94
94
101
89
104
103
108
70
77
108
89
98
70
92
74
77
106
94
83
85
97
75
71
74
99
79
99
73
92
104
85
93
83
94
109
75
100
92
76
101
82
85
98
98
73
107
84
107
75
76
78
73
97
70
100
93
76
101
96
72
108
82
79
108
73
94
84
74
88
71
90
94
105
106
84
104
71
106
87
101
87
95
107
77
101
83
77
78
107
81
73
89
99
71
86
75
94
102
106
103
78
103
80
97
82
72
78
86
80
79
100
107
80
79
90
91
109
73
98
85
95
100
102
85
72
88
83
98
92
79
102
88
100
77
109
87
100
106
97
75
91
77
106
93
100
107
100
106
99
88
81
107
81
70
72
101
108
100
76
73
89
72
80
71
107
104
81
78
72
70
108
79
98
90
90
83
76
84
104
90
93
74
84
78
74
102
94
79
95
92
75
80
77
106
88
82
99
89
93
80
94
92
87
82
91
103
82
86
79
89
71
99
85
76
75
96
103
77
80
101
80
71
104
72
82
101
103
107
108
96
88
107
86
77
90
100
79
75
93
76
87
75
80
70
89
97
76
103
75
74
87
86
105
70
106
95
86
96
107
105
85
84
106
97
80
97
94
78
70
102
88
78
98
82
107
105
90
102
97
77
85
78
90
105
80
73
97
79
107
84
71
75
95
101
108
89
91
103
82
102
72
90
101
101
81
85
96
85
103
94
90
81
108
80
105
80
95
79
101
102
95
96
88
75
107
93
77
82
72
79
103
93
109
92
83
71
100
92
80
82
82
103
93
106
97
73
84
82
107
104
103
78
91
77
80
72
78
81
101
70
80
75
83
92
84
71
106
70
91
72
82
73
97
89
76
82
100
73
84
79
71
85
86
77
94
107
94
98
99
100
108
84
72
80
72
97
70
81
99
104
78
81
102
104
109
93
94
72
77
95
96
95
106
102
98
77
106
73
75
73
105
92
83
92
91
105
102
78
91
90
84
95
108
102
85
81
78
75
84
108
108
84
81
106
83
74
107
85
77
71
102
85
87
73
89
70
96
84
83
105
83
83
88
90
86
80
78
74
76
82
93
86
80
87
94
88
75
90
82
84
88
94
87
94
102
108
95
74
86
97
105
100
86
108
108
89
100
87
97
77
87
107
73
70
74
81
87
97
74
94
95
108
75
102
94
92
102
85
84
96
102
89
88
77
99
92
90
108
78
74
95
81
70
101
80
92
74
81
76
85
72
85
104
76
94
78
76
103
95
91
96
96
96
76
94
78
83
84
73
99
84
105
87
77
98
97
91
81
80
72
78
109
109
103
103
92
81
103
80
80
105
70
99
91
108
89
77
94
86
83
98
78
77
77
89
75
107
71
89
75
92
109
100
95
72
85
107
108
107
88
90
101
107
96
102
79
97
105
76
109
92
90
76
93
75
70
101
90
105
70
82
99
101
81
70
84
91
103
109
92
77
98
75
103
86
95
88
101
73
83
92
107
101
73
95
72
76
83
108
90
92
95
71
98
101
76
101
93
92
100
75
100
79
93
82
79
90
99
81
102
98
96
100
104
72
95
83
95
89
85
94
99
75
89
103
86
74
77
80
80
76
85
103
101
105
80
71
84
95
85
90
104
101
104
84
108
87
100
89
98
81
107
97
85
103
76
99
73
109
101
71
71
90
90
89
85
91
84
91
77
77
108
74
85
90
106
84
79
80
90
96
90
102
70
79
104
88
106
73
73
93
91
107
89
96
81
96
93
76
80
109
108
83
89
97
107
105
102
93
97
100
94
104
109
102
86
87
93
86
97
75
104
108
80
83
93
100
101
84
102
101
92
93
88
91
100
96
76
81
77
78
74
82
75
74
100
90
98
81
74
89
105
72
93
88
99
71
109
79
84
109
102
86
74
100
96
107
108
70
79
107
79
103
99
108
70
93
104
74
98
78
96
97
99
81
95
75
101
96
80
105
87
100
95
71
88
73
70
92
106
99
108
95
83
81
90
72
98
73
88
70
71
85
72
93
70
93
96
75
86
77
102
106
85
79
95
104
102
100
105
101
85
72
106
93
74
83
81
96
77
103
75
102
105
94
80
102
100
108
103
80
93
78
95
98
103
81
104
88
101
77
105
96
86
99
99
109
108
109
86
74
103
78
107
105
79
106
105
92
74
79
92
108
99
107
99
104
92
71
73
105
93
77
94
91
85
79
94
102
104
104
99
78
73
78
79
88
106
96
92
71
82
100
95
101
103
85
82
85
109
91
74
73
93
75
96
71
105
97
99
106
94
75
78
78
99
72
78
75
90
96
96
70
92
85
104
77
90
75
108
97
81
92
90
97
101
96
87
92
90
75
83
79
71
70
89
72
76
91
82
106
77
75
92
83
88
90
71
90
75
86
81
76
105
91
91
89
87
99
92
74
73
76
100
94
107
82
107
70
77
87
98
93
86
80
74
84
84
90
101
77
75
92
90
70
93
95
92
88
89
100
101
89
78
108
79
79
97
78
108
102
93
100
78
99
91
95
89
82
107
85
72
93
82
87
77
86
100
104
93
87
107
99
91
96
104
92
108
97
90
74
99
81
85
99
86
78
77
73
81
93
99
91
97
76
79
87
75
94
78
86
94
95
94
97
95
96
80
75
100
70
85
103
82
94
85
99
74
92
107
84
74
108
101
93
81
80
106
106
85
92
101
74
88
78
89
109
79
81
109
105
85
100
107
75
88
95
108
93
99
94
102
107
84
105
104
90
70
98
76
98
73
89
78
99
89
92
109
71
93
91
104
71
73
108
91
73
109
106
74
79
87
107
93
99
95
74
100
82
90
82
101
103
81
92
100
74
90
83
74
96
103
70
89
92
70
70
102
70
90
96
80
99
95
77
73
102
107
80
99
86
83
72
84
87
108
103
77
101
91
74
71
71
71
105
95
88
94
105
92
92
85
89
94
81
108
98
89
107
72
99
75
77
107
75
98
92
73
72
105
102
109
88
101
76
84
86
91
84
87
79
76
82
103
77
107
95
92
83
71
74
71
107
100
87
97
93
87
85
74
96
81
77
94
70
99
87
70
99
76
79
91
86
95
88
104
83
96
87
105
88
104
84
94
95
79
109
100
92
98
91
70
79
85
88
88
76
98
89
76
89
91
73
89
87
108
71
97
101
85
97
89
89
70
96
70
104
108
86
102
81
107
109
85
101
108
73
105
81
90
81
104
71
71
75
105
90
76
86
104
73
97
99
94
102
89
78
104
87
90
90
70
100
107
99
79
82
87
80
107
103
90
72
105
87
105
76
91
87
86
77
71
80
108
71
103
70
88
87
82
90
89
89
108
108
74
102
100
101
85
91
93
76
74
93
95
71
88
84
79
93
99
93
92
82
95
109
99
82
92
74
86
89
91
100
104
107
87
92
100
95
95
92
71
105
75
104
99
89
93
83
101
86
91
109
73
70
74
99
92
74
93
71
75
94
85
90
90
95
99
71
79
80
108
90
89
70
85
81
91
90
88
90
101
88
85
85
84
78
84
75
97
102
73
79
72
79
82
76
90
73
109
87
85
96
93
86
106
75
87
105
80
77
80
72
79
76
98
102
95
72
94
100
74
94
91
105
103
85
72
104
96
105
78
107
103
87
82
103
100
80
98
71
98
81
78
70
99
105
105
79
97
109
71
103
103
97
81
101
103
104
103
96
77
78
86
75
99
92
74
77
70
100
101
108
106
85
97
90
74
105
98
80
82
109
88
83
80
89
100
84
88
72
88
84
71
106
76
71
91
72
86
96
105
104
73
78
94
99
90
78
82
90
79
89
106
96
72
80
93
108
75
108
98
101
107
75
104
91
80
88
93
92
93
73
91
92
94
95
72
89
96
106
108
78
70
107
97
77
97
94
102
83
95
88
93
102
103
77
70
74
100
101
75
101
96
95
77
80
107
87
102
87
84
84
105
