pr144
144
1 4350 4425
2 4500 4425
3 4300 4725
4 4300 4825
5 4300 4950
6 4300 5050
7 4350 8875
8 4500 8875
9 4300 9175
10 4300 9275
11 4300 9400
12 4300 9500
13 4950 10600
14 5150 10600
15 5525 9525
16 5525 9425
17 5525 9225
18 5525 9125
19 4950 8875
20 5250 8875
21 5550 8875
22 4950 6150
23 5150 6150
24 5525 5075
25 5525 4975
26 5525 4775
27 5525 4675
28 4950 4425
29 5250 4425
30 5550 4425
31 5875 2325
32 5875 2475
33 5875 2625
34 5875 2775
35 5675 4825
36 5675 4925
37 5875 6775
38 5875 6925
39 5875 7075
40 5875 7225
41 5675 9275
42 5675 9375
43 8125 10150
44 8225 10150
45 8325 10150
46 8125 5700
47 8225 5700
48 8325 5700
49 8675 3150
50 8675 3250
51 8675 3350
52 8675 3450
53 8675 3550
54 8675 3650
55 8675 3750
56 8675 3850
57 8675 3950
58 8675 4050
59 8425 5700
60 8525 5700
61 8675 7600
62 8675 7700
63 8675 7800
64 8675 7900
65 8675 8000
66 8675 8100
67 8675 8200
68 8675 8300
69 8675 8400
70 8675 8500
71 8425 10150
72 8525 10150
73 10850 9500
74 10850 9400
75 10850 9275
76 10850 9175
77 10900 8875
78 11050 8875
79 10850 5050
80 10850 4950
81 10850 4825
82 10850 4725
83 10900 4425
84 11050 4425
85 11500 4425
86 11800 4425
87 11500 6150
88 11700 6150
89 11500 8875
90 11800 8875
91 11500 10600
92 11700 10600
93 12075 9525
94 12075 9425
95 12225 9375
96 12225 9275
97 12075 9225
98 12075 9125
99 12100 8875
100 12425 7225
101 12425 7075
102 12425 6925
103 12425 6775
104 12075 5075
105 12075 4975
106 12225 4925
107 12225 4825
108 12075 4775
109 12075 4675
110 12100 4425
111 12425 2775
112 12425 2625
113 12425 2475
114 12425 2325
115 14675 5700
116 14675 10150
117 14775 10150
118 14875 10150
119 14975 10150
120 15075 10150
121 15225 8500
122 15225 8400
123 15225 8300
124 15225 8200
125 15225 8100
126 15225 8000
127 15225 7900
128 15225 7800
129 15225 7700
130 15225 7600
131 14775 5700
132 14875 5700
133 14975 5700
134 15075 5700
135 15225 4050
136 15225 3950
137 15225 3850
138 15225 3750
139 15225 3650
140 15225 3550
141 15225 3450
142 15225 3350
143 15225 3250
144 15225 3150
102
93
91
78
72
88
99
86
98
98
100
109
108
108
89
90
90
84
83
104
96
109
78
93
79
103
107
84
101
88
95
97
89
99
100
99
103
80
102
86
96
108
89
105
71
107
105
77
103
75
90
80
73
99
97
97
92
100
106
77
109
78
75
72
106
94
89
80
74
102
106
95
72
109
99
95
79
97
106
91
103
83
87
99
72
106
95
104
103
107
89
81
103
103
93
70
74
93
104
91
96
97
85
95
71
101
73
93
100
71
70
106
81
91
99
81
72
107
81
100
86
108
105
83
99
99
84
105
81
88
107
101
90
89
105
95
88
98
93
100
79
92
92
84
70
108
78
97
94
93
72
98
81
104
82
98
104
75
90
99
70
95
73
102
104
71
92
95
105
102
86
100
80
96
76
87
109
92
73
101
101
72
98
77
106
70
109
101
70
70
78
89
105
99
106
94
89
82
72
95
98
88
100
85
103
84
94
84
79
101
98
99
99
85
81
92
102
78
88
77
70
100
72
86
75
91
78
77
102
106
99
78
84
73
71
70
82
87
74
106
99
87
107
100
96
107
84
86
80
89
101
106
80
109
96
89
92
104
93
74
78
80
71
93
78
96
71
89
76
81
96
99
106
72
82
104
93
90
91
76
77
102
74
92
107
98
102
97
75
73
71
94
74
83
91
93
82
109
76
84
107
74
88
77
76
106
73
78
90
75
77
103
72
101
89
82
88
98
98
104
89
86
84
81
90
99
95
75
109
88
102
72
71
107
82
89
88
84
87
104
78
93
100
76
103
103
81
102
70
94
84
76
93
95
77
99
77
97
99
98
90
82
77
109
82
75
94
87
102
95
75
100
90
80
103
70
82
99
81
102
78
92
108
85
96
101
96
108
83
107
79
81
94
98
82
74
97
83
92
79
88
98
87
107
77
100
102
107
90
89
99
99
88
87
91
77
98
95
94
91
101
108
107
95
84
104
107
81
103
89
108
81
75
85
98
77
72
98
73
109
87
89
86
101
107
76
95
107
106
93
88
81
83
89
79
85
98
85
98
88
105
79
79
100
98
105
84
98
83
81
88
90
88
76
106
75
103
101
97
70
96
80
92
94
84
100
91
75
80
80
77
96
106
85
83
73
75
85
77
105
109
90
84
99
102
73
87
103
94
97
82
79
85
79
92
90
81
76
95
105
71
89
70
89
72
105
98
88
78
105
77
83
78
99
75
87
96
81
93
71
101
96
96
86
97
98
86
77
105
105
100
103
87
73
107
107
91
109
74
81
76
101
84
73
87
94
94
104
95
107
76
100
95
83
109
83
76
90
108
87
77
108
96
100
79
103
86
101
100
73
77
84
109
90
98
80
104
83
78
76
83
71
101
70
73
97
71
85
76
78
85
95
93
76
108
73
96
83
78
96
83
91
98
88
104
103
104
99
72
89
89
93
83
85
94
109
102
106
104
102
108
86
104
78
72
97
73
95
105
86
74
92
87
93
72
70
85
100
92
81
96
88
81
96
79
94
104
88
100
94
95
92
82
75
87
100
70
100
93
83
83
87
100
73
81
70
89
103
70
90
79
73
72
104
100
88
81
73
92
81
99
86
84
96
70
76
73
105
81
84
82
80
101
86
91
95
104
79
84
88
73
80
74
84
87
89
92
84
102
94
88
94
100
81
103
90
81
97
70
92
70
81
95
85
96
75
95
78
101
103
89
76
78
102
75
90
85
108
103
99
89
102
86
80
71
80
96
89
83
90
94
95
72
76
75
89
100
79
80
77
87
86
96
106
78
77
92
83
107
97
95
102
103
80
108
102
107
98
87
87
75
72
81
72
77
92
104
85
80
73
94
85
71
100
97
97
96
76
75
103
105
70
99
78
91
108
84
90
89
71
84
98
90
82
79
80
77
73
109
73
85
90
82
70
93
82
108
82
109
75
82
85
102
93
75
104
91
99
77
98
80
79
103
91
95
97
105
87
105
75
74
85
90
73
106
72
88
87
105
109
101
99
104
94
91
109
71
95
87
84
70
88
97
75
96
90
75
75
85
109
89
99
87
96
72
94
71
82
105
92
97
90
79
83
101
98
103
87
79
74
96
95
81
82
84
74
71
102
94
90
84
105
100
72
76
76
102
97
105
70
79
96
90
88
84
75
96
105
91
74
91
72
70
109
85
72
72
85
77
73
103
86
95
100
90
83
73
87
109
99
105
106
107
99
109
105
99
84
83
83
102
86
91
74
104
108
74
84
93
98
80
81
95
77
84
78
93
91
70
74
101
107
77
71
100
109
75
99
93
76
93
95
89
75
95
80
71
71
72
92
101
107
74
71
101
97
77
103
90
104
91
93
93
97
79
109
83
103
82
87
90
77
87
79
76
74
80
98
90
83
79
98
93
80
89
83
89
90
72
79
100
106
81
103
85
70
70
100
80
72
76
101
105
87
71
81
102
90
92
79
74
98
103
108
104
95
79
85
101
86
71
70
73
82
86
82
87
97
73
83
82
88
95
100
90
97
70
78
104
99
76
80
71
99
72
75
75
106
82
92
103
79
97
91
105
71
75
100
96
106
106
75
105
79
77
102
70
83
92
70
73
78
89
94
88
102
91
86
89
105
84
106
71
108
109
87
77
97
81
78
83
81
96
77
95
70
93
89
77
101
105
80
90
98
89
95
93
108
70
103
80
82
76
93
102
78
85
82
101
105
102
96
93
79
83
102
73
109
95
94
78
72
102
101
90
87
86
99
88
100
106
76
104
79
82
94
84
76
80
76
96
102
84
82
73
99
74
73
106
106
74
93
74
83
81
70
74
86
70
92
70
94
104
78
75
87
70
109
96
70
86
108
95
104
98
91
109
70
87
85
72
71
80
70
97
94
92
105
98
70
99
80
90
75
70
77
78
75
72
105
106
85
95
84
81
96
103
100
73
103
82
89
83
91
96
88
82
90
85
102
105
71
100
81
81
98
70
97
75
90
80
76
84
87
75
90
87
101
85
94
71
86
73
102
108
103
82
85
85
70
78
87
72
90
97
77
94
83
79
90
98
84
94
108
91
70
74
71
104
87
107
70
84
99
109
108
107
89
79
107
83
90
102
83
70
77
82
108
71
79
80
95
99
73
82
74
98
82
101
91
93
94
97
95
75
87
86
91
87
92
93
75
92
87
84
105
84
91
87
72
84
85
99
97
76
82
100
86
95
90
106
77
86
99
79
88
81
73
108
107
96
109
93
101
103
108
98
98
105
73
80
104
94
93
103
72
80
86
84
72
82
94
82
79
98
93
85
104
105
90
104
99
80
70
71
96
85
81
95
78
94
89
77
83
109
88
76
76
77
85
83
87
92
94
94
95
90
109
75
72
105
72
88
76
93
86
84
102
93
70
91
92
90
106
70
98
88
108
90
109
76
96
95
100
77
91
76
70
85
106
89
80
89
101
102
94
79
101
106
93
104
84
102
86
86
77
75
85
88
84
73
90
92
78
82
88
100
100
86
108
84
100
104
88
82
81
96
97
103
76
91
86
85
82
104
74
74
80
100
84
92
109
97
76
109
71
74
88
98
81
90
105
86
75
94
104
100
90
96
85
76
98
77
81
77
73
81
105
93
77
82
86
101
81
98
99
97
92
89
95
70
83
82
100
92
88
76
87
70
74
100
89
71
71
98
85
88
72
89
75
72
76
91
76
107
95
108
87
102
108
109
84
105
89
101
95
101
106
99
86
105
96
70
95
96
84
96
76
85
79
105
72
74
75
72
79
101
87
87
72
92
95
104
86
90
107
90
80
107
89
81
102
108
85
109
93
102
104
89
100
85
94
79
96
92
92
74
101
99
82
100
102
84
102
81
94
90
105
107
72
99
102
88
84
72
96
81
76
98
83
92
102
103
78
108
90
101
95
95
102
103
95
89
80
94
80
80
76
73
76
87
95
79
88
86
83
76
105
82
99
99
85
105
106
76
94
81
87
94
74
81
84
70
86
104
103
97
101
85
104
70
75
86
108
95
71
109
90
81
89
96
84
74
87
104
96
83
78
84
103
103
71
79
109
83
72
87
107
93
93
88
82
106
79
96
97
98
100
76
96
79
86
75
77
79
72
97
87
93
71
79
90
103
102
89
99
99
84
96
100
99
73
81
97
92
79
77
108
73
102
106
102
85
98
99
87
89
73
92
72
74
72
88
71
71
77
102
92
89
106
105
105
107
96
96
102
93
75
101
94
100
101
81
108
76
85
88
106
104
73
89
92
97
89
105
104
102
86
80
80
75
75
100
76
85
75
109
105
92
99
105
79
90
81
72
90
91
70
98
102
101
80
88
97
83
75
73
91
92
104
70
89
97
78
104
83
104
89
88
82
98
96
71
86
91
75
79
87
75
85
82
107
72
70
73
87
79
84
80
89
91
92
104
78
108
83
93
71
76
74
105
97
70
97
88
85
96
98
78
93
83
74
94
80
96
84
109
96
78
87
94
74
105
72
102
70
84
107
83
72
74
70
105
77
105
70
77
74
97
87
93
82
76
86
87
70
94
81
90
74
71
81
83
70
94
95
72
90
96
77
106
77
98
86
70
72
83
80
76
70
77
89
84
95
70
104
70
101
98
77
97
103
99
84
71
84
99
70
79
82
89
105
90
104
83
97
97
96
83
86
79
73
77
104
76
76
96
88
81
85
98
81
75
77
105
71
90
94
88
71
97
78
102
79
107
95
78
71
83
78
98
104
76
75
96
92
83
80
82
87
106
102
81
84
79
76
74
91
84
74
84
105
95
109
96
96
109
75
82
105
107
105
95
87
77
99
95
102
106
101
93
92
96
71
109
86
108
94
70
86
109
73
88
100
106
96
71
83
88
76
72
102
88
107
83
106
105
91
90
77
98
81
73
79
90
82
87
88
100
97
84
90
101
98
83
89
88
88
74
72
100
90
87
78
84
90
77
81
79
105
80
81
81
109
94
89
74
101
78
73
94
87
109
103
92
95
94
95
99
75
73
72
74
84
104
89
102
96
94
77
81
78
89
107
89
97
90
88
87
105
91
89
73
86
96
76
91
86
72
86
81
105
78
82
72
107
99
88
70
91
70
101
70
105
87
82
72
93
80
87
89
93
93
97
71
79
94
89
80
96
74
95
100
92
70
103
79
88
103
91
83
83
100
81
70
92
71
94
88
80
86
107
104
75
109
95
103
73
70
70
85
85
108
81
74
106
76
109
96
89
84
96
95
98
105
89
105
85
84
88
80
75
84
70
84
97
106
94
97
70
73
100
96
93
85
92
77
77
109
102
90
86
84
81
89
70
100
86
103
102
108
95
88
87
100
79
85
80
101
107
109
108
71
98
107
88
93
89
84
99
76
105
84
81
92
101
82
73
102
95
88
101
103
75
79
97
91
86
83
104
94
80
99
100
71
80
101
77
86
70
71
108
103
87
80
88
71
76
104
105
86
109
93
83
94
76
87
108
83
84
79
89
100
100
100
102
73
94
101
86
85
102
102
106
102
87
101
84
83
79
100
79
101
102
108
103
97
75
103
103
84
80
79
75
72
71
94
82
87
109
77
81
93
78
81
84
106
105
82
77
72
77
78
106
83
100
102
75
95
87
71
73
86
99
108
109
89
106
106
96
102
108
92
102
100
104
88
105
83
78
73
107
79
87
95
108
71
103
84
77
96
89
79
83
104
107
87
97
104
92
80
79
81
100
82
103
74
99
91
74
80
93
73
70
72
107
77
75
81
93
76
70
102
104
80
93
98
74
70
77
100
70
97
80
77
100
103
75
80
79
90
71
106
102
90
85
98
75
89
80
82
96
88
70
94
108
88
71
77
72
75
81
102
70
83
75
109
92
83
105
78
93
70
96
96
105
108
74
78
87
84
107
74
80
94
109
99
85
96
97
73
83
100
71
94
70
72
104
87
108
70
98
83
84
109
84
107
103
88
75
99
93
93
108
104
83
88
74
83
108
105
98
93
101
83
70
75
109
95
103
108
77
96
78
103
93
96
76
83
103
108
105
106
71
83
74
85
91
101
94
94
80
81
76
90
102
95
109
85
108
103
79
91
70
74
85
92
70
88
105
95
106
73
75
98
93
72
103
89
71
76
106
109
105
73
109
87
108
80
101
85
98
106
73
100
88
106
70
96
81
83
97
87
78
71
99
108
109
107
105
107
72
87
100
88
72
98
85
109
89
109
78
83
79
87
94
97
105
89
91
75
102
99
92
93
77
103
103
80
97
99
97
75
85
101
84
70
84
91
70
83
92
80
96
87
100
78
91
87
83
72
106
86
75
70
84
70
103
79
80
77
104
90
71
90
86
78
108
96
93
83
71
90
70
80
106
103
104
87
91
73
102
101
84
104
82
86
71
101
106
105
94
83
83
95
90
104
100
74
82
85
100
108
71
82
85
85
93
78
83
98
109
93
104
98
105
99
90
106
87
103
88
99
81
84
89
106
76
76
109
73
88
70
80
77
79
106
108
72
90
106
109
71
80
99
99
94
104
100
108
82
82
95
105
95
97
85
106
91
107
103
99
107
108
74
89
102
87
99
96
95
95
99
71
102
109
84
87
72
107
93
87
86
104
91
75
76
101
105
86
99
72
72
102
89
102
98
79
103
79
76
75
91
108
83
104
79
92
96
106
98
88
102
99
102
83
91
88
89
70
70
70
88
99
104
109
97
88
102
83
96
86
86
108
84
99
87
73
98
85
94
94
99
72
79
97
74
106
88
79
80
92
108
105
99
99
87
72
84
105
93
100
97
102
72
75
83
98
98
88
80
87
79
90
83
75
70
95
74
76
98
97
80
95
108
95
108
74
108
103
75
96
88
83
82
109
107
89
102
107
97
79
95
100
74
95
98
73
70
79
86
98
80
77
89
87
78
89
76
86
103
83
76
86
86
70
99
100
103
101
102
108
71
86
96
74
88
92
88
73
77
105
94
84
91
75
107
107
73
94
89
96
74
99
81
99
104
80
76
107
75
79
108
78
74
91
108
106
97
105
93
108
107
100
98
90
98
75
70
84
70
70
77
80
106
95
72
87
85
94
85
97
79
96
79
104
74
80
105
76
84
78
89
90
98
104
75
107
86
94
74
106
92
106
78
78
90
88
107
97
102
82
95
72
100
71
78
84
80
93
97
96
81
100
92
91
87
85
87
80
103
83
72
77
92
105
70
106
96
85
89
90
91
75
80
78
74
92
75
104
84
96
99
101
81
106
78
103
109
108
71
106
84
99
94
93
93
107
100
91
108
78
90
99
83
89
98
108
80
96
85
93
101
99
94
84
100
96
80
70
89
92
76
87
101
92
93
105
88
97
88
74
95
91
77
89
70
77
91
90
95
106
108
107
108
85
84
109
73
79
104
103
78
109
92
71
108
96
86
75
77
82
81
95
88
93
92
95
109
94
93
96
87
82
104
106
104
87
84
80
81
70
103
107
90
88
89
92
102
95
95
105
107
86
73
82
97
91
70
76
96
108
78
93
87
104
73
97
82
72
94
85
76
94
94
106
93
92
74
84
78
87
74
92
99
85
87
82
71
78
75
103
102
96
80
98
71
101
103
82
81
72
98
83
73
109
99
92
104
97
79
89
97
74
77
100
92
80
99
81
92
101
91
81
80
96
74
88
104
96
106
107
94
79
88
92
88
77
88
81
99
71
87
97
106
80
98
80
79
70
93
77
96
88
87
106
86
103
100
109
98
82
90
85
97
78
96
70
98
85
76
88
77
87
92
108
95
79
79
98
99
104
102
87
99
87
101
106
103
82
78
105
84
89
103
72
89
100
74
98
71
70
95
106
103
80
109
100
104
73
94
72
105
85
100
87
92
107
86
81
75
99
72
78
103
79
106
99
79
106
95
96
86
79
96
71
88
75
90
80
94
85
78
107
104
77
72
77
91
91
74
94
91
97
74
82
83
84
97
88
90
79
93
79
88
80
73
71
97
103
107
103
105
108
79
83
105
80
98
96
89
71
98
99
79
101
92
86
95
79
85
109
107
75
93
73
92
106
89
98
74
76
104
90
96
101
97
79
76
103
75
89
70
96
84
70
94
85
102
90
83
96
79
83
97
78
104
76
75
75
72
79
90
82
98
81
100
104
92
105
80
73
97
97
89
85
98
96
73
92
104
102
88
95
109
74
101
97
76
97
100
102
70
104
73
98
95
100
108
109
104
95
86
102
94
94
91
94
90
88
71
71
107
90
94
92
81
97
103
91
99
80
104
96
91
75
72
75
104
98
73
77
77
74
77
95
80
88
91
92
70
96
105
80
93
101
76
104
106
82
102
84
83
96
79
99
96
105
71
77
94
76
91
103
107
98
94
91
73
89
90
86
109
86
103
94
95
89
99
75
71
107
82
92
86
83
80
70
99
73
85
73
87
83
73
100
83
71
104
106
88
95
103
100
71
75
80
97
90
92
82
83
82
85
109
76
91
87
84
81
93
85
91
70
77
77
83
74
99
88
84
77
84
83
99
87
99
95
77
90
84
78
74
106
74
80
92
84
74
101
98
77
102
83
89
92
70
90
82
99
76
94
98
74
71
85
70
93
91
74
85
80
95
89
90
95
79
84
90
74
107
101
83
97
87
101
94
92
100
84
94
71
87
98
73
84
72
77
103
97
86
108
72
99
82
108
83
91
105
80
101
80
77
79
86
93
94
73
74
93
77
105
94
108
82
81
82
72
71
75
86
104
92
92
88
76
76
102
93
77
72
86
85
77
106
82
100
98
85
79
94
71
91
91
83
100
79
94
76
104
100
70
109
108
101
83
99
105
71
96
87
101
108
92
75
74
89
104
85
71
91
89
90
83
101
88
101
103
93
104
88
107
79
71
97
100
98
89
73
77
82
90
82
75
109
75
79
109
91
71
104
108
103
93
93
104
91
88
91
99
99
86
101
82
104
102
85
96
81
78
75
101
93
76
85
80
76
107
80
89
86
88
85
106
91
101
88
94
85
109
101
74
91
97
100
107
96
99
87
97
99
74
89
99
96
85
73
83
71
107
102
99
75
74
78
96
78
103
74
93
99
78
76
83
84
97
100
104
85
78
79
70
72
108
90
70
83
103
109
92
95
77
99
109
82
71
80
78
104
100
108
70
101
98
80
79
94
94
94
105
104
78
102
96
105
78
70
71
70
80
106
108
85
95
93
78
76
101
70
92
89
91
102
80
99
74
96
93
105
96
74
77
98
93
108
77
100
70
103
92
97
89
80
106
79
106
100
86
103
86
94
83
81
78
71
108
93
78
77
109
101
78
71
100
81
81
88
95
91
77
106
71
100
106
78
94
79
78
97
86
101
88
96
98
96
83
87
81
76
86
94
79
98
98
94
102
103
91
91
94
108
74
82
96
72
74
84
81
99
74
99
93
92
107
101
106
86
107
95
79
94
89
108
92
96
106
94
99
82
98
76
96
89
103
101
102
91
107
99
90
101
88
83
107
78
73
93
98
99
86
103
78
76
104
87
83
87
86
80
100
108
104
92
95
89
74
107
97
94
99
99
105
84
78
89
97
105
72
95
90
103
76
102
87
87
76
70
101
79
88
108
105
76
75
74
90
108
84
93
73
106
75
83
87
71
101
84
78
95
74
76
90
107
84
93
73
77
75
105
72
97
103
104
104
105
101
71
74
73
109
91
103
101
91
100
75
96
77
77
106
87
77
99
107
109
72
84
108
72
101
97
70
107
98
87
107
85
100
107
94
90
93
76
106
89
83
94
93
86
70
107
93
89
90
93
76
102
94
98
89
70
100
86
71
103
90
95
97
79
80
77
102
86
92
105
106
101
82
72
109
73
96
71
80
93
104
97
93
71
103
87
102
97
94
71
82
83
95
81
83
79
75
102
90
101
105
81
87
96
89
74
84
73
74
73
82
107
97
88
87
103
83
84
102
104
93
101
94
89
97
100
80
101
91
85
83
79
85
85
106
108
81
109
97
102
93
88
76
107
91
73
89
101
97
105
78
91
103
88
94
79
95
97
104
89
90
99
88
109
104
100
91
80
72
97
85
105
105
92
85
77
95
70
75
75
83
101
72
82
108
79
95
79
107
71
107
75
94
103
98
77
82
95
88
100
78
109
95
88
78
86
101
105
93
100
102
88
103
89
99
101
78
90
107
80
99
95
106
108
72
106
88
104
75
102
107
104
109
98
79
84
91
102
92
95
101
101
81
75
94
76
72
92
108
90
73
90
88
97
76
98
95
99
90
86
82
88
107
92
91
80
101
85
106
91
107
72
95
105
84
86
80
95
78
95
109
79
90
93
106
84
106
86
77
108
88
96
88
94
73
104
73
85
98
92
105
86
97
90
82
71
95
72
109
105
101
78
106
72
101
72
96
72
82
81
88
90
91
76
70
71
91
84
103
100
77
71
105
71
78
71
71
96
107
89
84
107
85
89
91
70
82
86
92
102
86
73
89
79
98
108
105
92
91
105
101
75
70
88
82
108
99
109
78
76
79
97
94
77
95
104
88
96
74
84
100
94
78
96
96
75
85
86
84
76
97
101
83
83
94
70
76
104
87
78
79
82
76
104
76
94
82
76
80
79
91
83
89
95
80
92
101
85
101
84
78
80
100
89
88
99
76
96
78
105
98
88
106
82
96
103
76
103
78
99
84
91
95
99
91
98
94
79
95
78
72
101
70
88
84
70
78
100
96
80
89
104
109
77
94
94
78
92
70
87
76
78
93
75
70
84
106
87
87
104
72
94
105
73
77
91
73
82
83
85
98
101
77
100
87
76
93
75
83
80
100
95
91
86
73
95
87
71
101
109
84
102
78
92
85
71
107
97
76
87
79
87
99
95
90
102
104
84
101
108
81
100
108
86
75
89
104
72
74
106
70
100
76
99
106
104
78
105
72
83
108
107
92
89
74
86
104
77
97
71
86
70
87
78
79
93
77
81
92
78
103
94
83
85
79
102
100
99
99
102
99
73
97
80
89
100
72
82
71
82
88
84
82
84
93
95
77
92
72
101
91
72
87
76
101
96
78
87
83
85
85
70
86
90
75
109
93
80
100
91
78
92
104
107
96
84
92
72
94
98
92
109
79
71
89
74
83
100
79
78
73
109
83
81
87
87
99
73
73
76
70
105
94
84
94
92
79
70
75
80
98
104
82
88
102
107
93
98
95
74
101
83
84
100
101
80
79
96
105
102
85
97
70
84
87
90
76
95
80
75
106
70
96
85
97
96
72
91
75
75
79
81
101
86
93
81
83
89
94
76
75
107
105
78
85
92
81
85
105
101
91
107
81
92
73
82
97
92
87
95
84
93
85
90
73
103
76
85
78
101
84
75
99
88
100
76
90
73
84
86
77
100
104
77
105
89
85
70
82
100
74
80
96
103
87
93
104
71
96
80
77
100
88
78
88
85
72
74
102
76
95
100
105
77
78
82
106
109
84
98
101
96
96
102
101
107
109
105
98
84
83
97
96
79
107
77
106
106
83
97
95
107
107
104
84
81
79
97
74
72
94
85
89
80
90
104
109
80
81
94
80
103
91
104
72
92
77
103
98
95
86
88
71
96
80
97
86
86
105
83
75
82
91
72
79
85
104
79
71
94
74
85
81
81
81
87
84
109
78
109
87
77
105
89
70
105
86
88
104
101
109
72
92
99
98
75
101
109
98
106
92
101
103
86
101
88
109
83
76
96
78
103
74
106
83
89
90
96
77
85
81
103
75
79
78
107
108
93
85
89
79
98
82
78
89
80
77
70
71
71
105
95
109
83
73
87
86
98
93
83
92
103
89
107
75
88
103
74
105
71
79
98
88
103
99
103
104
100
72
82
87
80
106
105
98
100
103
101
96
108
86
92
108
78
97
88
84
100
81
96
97
72
74
94
86
80
79
97
83
90
70
99
76
97
95
86
86
72
73
98
90
102
78
82
86
75
72
96
103
99
84
94
99
105
94
95
87
85
109
108
92
89
72
83
95
88
81
102
73
72
89
88
84
73
108
101
88
78
94
74
108
84
86
106
105
81
99
99
99
87
85
97
97
89
85
73
104
77
86
80
91
107
77
77
102
93
72
77
106
87
100
70
83
96
97
86
97
81
105
100
108
102
79
70
83
99
85
101
103
89
97
70
99
90
104
75
87
89
75
106
78
76
89
108
92
70
101
96
108
89
81
72
96
73
92
77
98
79
96
87
99
108
95
87
91
108
95
105
80
85
107
100
74
104
85
76
70
79
96
106
74
104
99
105
73
73
83
76
86
108
71
103
78
85
90
100
97
90
84
79
74
82
82
75
79
105
88
70
75
107
84
106
106
94
101
102
85
78
108
101
87
107
97
109
94
101
89
83
78
99
70
108
99
88
104
87
109
71
91
74
97
81
81
90
94
101
73
103
76
87
104
79
92
99
95
97
92
100
100
77
90
104
70
74
107
78
100
104
108
108
93
72
105
106
93
97
108
90
86
84
96
92
85
89
86
93
95
83
80
96
100
82
100
89
99
80
100
77
102
79
92
85
95
96
107
93
90
94
77
72
101
101
72
94
70
85
93
89
76
84
90
84
104
91
86
77
93
78
92
85
94
98
84
85
71
83
94
99
87
91
73
77
85
98
91
101
80
106
73
86
83
106
105
86
73
86
78
92
84
76
84
76
93
98
101
97
79
103
108
75
101
79
95
73
94
99
82
72
85
96
82
76
78
70
87
103
77
76
93
96
89
91
92
93
106
104
71
100
79
101
75
102
107
74
105
93
96
72
93
104
76
71
71
101
76
97
98
78
94
86
91
79
75
89
76
78
77
90
98
76
93
70
100
91
89
84
85
81
92
90
92
92
94
71
97
102
93
97
107
75
92
75
88
81
99
103
76
72
71
106
70
105
99
88
103
99
79
101
108
108
81
95
78
85
105
88
72
98
98
96
81
72
77
82
107
71
71
86
107
106
95
79
74
100
81
109
91
78
78
94
102
79
87
104
92
83
104
99
92
86
74
101
102
99
99
101
86
88
73
108
83
85
109
81
88
93
85
84
74
83
93
93
75
97
79
102
95
93
96
70
101
77
85
95
104
108
101
75
95
77
105
106
82
72
106
103
86
99
81
100
98
91
77
107
75
107
72
71
101
75
99
98
107
85
99
80
80
100
92
76
95
70
109
97
72
100
84
83
101
103
108
95
92
77
76
97
77
84
74
85
86
102
88
96
93
94
109
87
94
107
95
71
78
74
103
88
87
88
102
92
76
88
87
108
80
98
100
85
74
109
78
70
108
86
87
102
84
81
106
76
82
88
94
102
83
82
87
70
78
109
101
90
77
71
97
107
86
97
109
105
82
86
91
108
109
74
89
109
80
70
99
71
76
99
97
96
72
101
91
85
92
91
75
85
94
99
74
76
101
75
77
99
101
102
105
94
99
107
77
86
105
92
103
104
83
78
105
94
107
108
101
92
82
73
103
85
104
78
90
95
79
96
70
101
107
77
105
92
92
81
83
104
94
100
86
87
88
94
109
78
109
70
84
91
72
72
81
106
91
77
90
92
106
79
80
93
75
101
106
102
96
75
76
90
89
85
96
84
107
70
70
81
102
92
81
82
102
103
98
109
79
74
81
91
95
104
105
109
102
83
108
91
105
73
70
70
104
88
86
79
76
100
83
103
77
70
75
96
75
95
97
100
76
109
80
85
85
93
107
108
108
106
71
86
94
92
108
107
100
85
71
97
99
80
100
89
76
107
74
104
73
79
87
72
73
85
85
96
70
91
109
106
93
80
76
100
102
84
83
97
109
107
92
96
87
99
97
77
105
108
94
103
78
80
98
98
79
107
91
109
72
77
72
103
81
85
74
94
74
96
101
104
106
98
107
77
74
85
99
100
85
80
88
86
107
81
76
104
78
70
87
77
93
105
83
99
71
90
90
100
82
105
97
104
77
108
70
89
106
101
89
87
104
88
71
109
80
75
109
84
70
79
107
94
83
103
86
70
105
95
74
78
102
86
72
81
92
70
101
106
104
84
107
85
90
91
100
84
100
70
83
108
87
102
78
74
74
96
81
80
93
83
108
92
77
88
73
75
88
99
94
82
92
97
82
85
82
90
93
84
97
89
96
74
80
106
72
87
84
84
101
81
100
94
104
79
80
103
108
78
89
88
107
72
101
93
108
89
74
109
108
99
109
109
100
93
83
76
89
79
104
82
81
105
85
90
100
85
88
106
81
91
71
88
91
91
100
95
92
80
80
99
89
75
105
89
93
77
78
75
106
105
85
98
85
81
74
109
106
96
75
105
105
104
105
105
87
93
106
80
95
82
85
92
90
90
77
94
77
81
98
79
99
101
84
70
90
95
89
71
74
94
73
77
99
94
73
83
94
93
109
96
95
94
97
89
89
82
73
84
107
99
95
90
74
107
85
100
95
85
83
89
90
81
84
70
71
78
85
80
96
107
77
94
91
78
99
90
86
81
108
90
80
90
76
98
97
91
79
100
76
89
80
106
100
80
90
107
78
94
94
77
78
95
92
99
76
74
101
103
79
97
87
80
82
102
90
95
103
84
108
79
74
77
104
92
88
83
77
101
71
80
99
76
70
105
72
102
105
72
85
94
70
105
99
95
92
96
106
82
77
97
90
92
72
95
99
84
76
89
83
108
74
98
102
101
75
81
99
96
98
81
92
90
98
97
78
79
99
70
106
75
73
103
74
84
70
89
80
76
82
84
92
87
104
70
77
72
106
103
91
80
103
93
98
89
92
89
80
71
73
105
74
97
86
79
76
95
101
82
81
100
81
99
106
78
80
83
106
99
101
107
73
103
97
76
70
91
99
81
107
104
77
97
108
109
89
105
72
92
92
106
100
75
82
94
100
74
106
97
83
73
83
101
84
76
95
95
98
97
79
81
93
97
71
79
102
70
92
85
78
84
107
88
98
98
75
101
89
83
94
96
96
88
92
102
86
96
97
92
108
83
96
97
87
99
104
105
90
93
78
100
101
70
91
70
106
105
71
72
106
104
93
104
107
105
97
76
109
99
96
92
77
104
79
97
97
78
95
89
102
97
71
100
86
83
74
75
86
95
107
88
87
82
94
81
90
107
73
89
98
100
75
104
109
81
75
97
91
97
76
77
90
99
72
103
73
91
107
103
76
84
81
91
80
96
82
83
79
70
76
99
85
76
74
95
108
86
109
81
109
77
72
87
96
98
96
91
70
85
75
91
93
106
96
82
84
99
72
102
80
92
107
76
102
98
94
104
105
102
83
90
70
81
98
109
103
79
103
82
93
105
84
109
105
78
72
102
100
99
72
90
102
91
77
98
84
71
78
77
102
73
87
106
104
102
90
73
70
98
94
99
101
104
85
102
88
83
90
109
97
95
106
87
88
75
90
87
81
99
90
85
97
104
73
75
89
75
97
90
102
98
100
85
104
74
70
102
89
70
77
81
105
103
87
102
88
109
107
90
91
108
75
80
91
91
71
91
106
89
86
88
71
96
81
90
100
86
96
78
78
106
97
80
84
92
94
93
100
81
95
91
75
101
87
94
83
89
91
108
106
79
97
99
81
91
85
81
98
109
90
84
85
101
95
92
84
86
95
70
85
94
70
106
97
108
89
71
107
75
101
101
91
102
90
91
75
76
97
98
97
103
92
82
103
87
70
107
87
92
107
79
99
100
88
103
84
98
102
91
73
80
91
93
107
70
82
72
71
83
108
85
99
83
71
78
76
73
70
103
95
79
73
82
78
77
78
74
102
94
72
106
103
97
71
86
91
70
88
74
75
71
71
82
70
89
98
106
91
75
72
103
98
87
73
85
78
70
103
107
93
97
78
108
99
77
72
87
83
79
101
89
88
88
73
105
75
82
77
101
70
92
90
99
88
91
108
98
98
98
76
98
74
90
88
81
109
85
71
88
83
104
103
109
93
71
90
90
74
86
89
94
99
101
79
75
107
107
73
88
83
103
76
71
101
98
71
73
103
73
107
89
106
90
88
71
76
100
106
78
107
84
77
87
91
101
84
95
98
80
96
87
105
109
71
74
101
97
98
109
80
88
108
98
74
92
96
77
99
70
74
75
86
109
73
95
86
93
75
71
84
98
105
86
76
101
77
92
92
86
106
99
103
91
90
99
89
103
70
88
84
94
73
74
82
96
85
86
76
109
75
107
98
88
85
71
100
79
79
107
96
97
77
93
85
73
70
108
104
98
82
97
93
100
79
84
88
102
98
76
108
76
100
107
92
107
99
105
72
98
108
97
74
91
85
73
74
107
87
85
103
86
108
78
71
79
101
95
96
102
79
73
79
82
79
72
82
82
108
77
105
95
100
76
74
92
74
105
78
72
94
103
101
91
92
89
97
71
98
109
98
81
109
85
109
104
83
104
91
78
95
73
95
109
96
86
104
83
106
99
96
89
105
88
100
80
83
73
101
101
102
84
70
71
75
104
78
70
97
100
72
103
108
86
82
109
79
77
108
97
103
97
89
101
90
97
98
94
89
77
73
89
74
78
91
95
97
83
90
83
95
109
82
84
99
84
98
94
81
83
109
78
104
106
98
93
89
75
96
100
108
95
86
74
77
74
106
106
79
76
89
80
71
73
95
101
77
75
102
89
94
103
84
73
86
102
73
105
92
100
70
75
70
70
108
73
87
72
91
103
94
108
106
93
73
98
95
107
105
100
104
102
95
89
73
106
104
101
102
96
101
78
108
75
70
90
75
85
89
95
70
95
85
108
86
73
99
102
100
102
95
77
86
84
92
81
84
82
86
95
99
107
92
80
73
75
93
107
106
87
97
81
75
73
108
90
109
100
87
71
84
77
88
104
89
91
75
71
77
105
88
108
94
105
79
73
103
91
82
97
83
94
74
93
74
94
84
80
95
79
108
76
105
89
75
99
105
85
78
99
83
78
95
84
89
99
104
107
92
76
85
92
92
91
81
83
90
94
92
76
84
98
75
85
97
98
80
104
93
87
92
77
71
90
74
95
106
105
78
93
89
70
70
92
102
94
96
108
108
80
76
104
91
84
75
106
100
79
88
102
71
100
93
85
73
92
98
77
97
90
98
87
109
88
86
106
105
70
78
70
88
77
77
107
101
86
108
98
108
80
90
109
77
74
74
91
81
85
77
70
96
94
83
105
82
107
92
100
100
108
75
74
70
108
101
85
82
71
95
72
72
102
78
76
104
105
82
79
95
77
102
91
93
86
81
99
94
70
72
107
89
95
96
72
85
78
87
70
106
104
90
81
95
105
76
93
88
74
86
90
74
107
90
90
74
98
108
77
82
82
83
80
102
104
76
81
79
106
96
77
101
81
95
86
90
88
93
79
108
77
92
98
84
87
75
85
93
81
93
103
86
95
84
105
108
78
103
107
98
97
98
76
82
73
78
87
81
76
80
74
102
81
78
81
75
99
80
90
79
84
99
82
74
84
107
88
91
74
82
104
79
98
76
91
107
88
102
108
92
76
70
70
92
79
92
93
72
92
105
75
103
90
86
76
94
74
97
75
82
92
100
86
102
70
103
72
70
103
103
77
106
105
78
91
103
78
108
96
74
85
78
70
103
108
95
94
105
88
101
108
83
83
101
71
102
93
105
100
92
102
73
107
76
107
96
82
71
71
104
80
107
108
96
109
109
106
85
105
109
94
79
106
76
79
102
89
89
102
84
87
77
84
109
108
83
73
92
89
76
89
104
87
73
73
95
103
82
107
105
107
104
94
88
100
94
98
70
70
93
74
104
89
104
82
82
74
93
107
75
81
109
85
82
92
77
93
81
108
70
103
81
86
91
70
71
108
89
89
109
85
91
96
108
83
102
88
104
91
98
82
100
107
83
99
72
87
103
87
80
108
89
88
79
88
77
70
108
73
109
71
92
70
83
81
104
91
80
84
88
73
100
78
87
109
87
90
97
72
95
105
75
103
83
75
98
75
88
79
79
83
89
97
98
97
77
92
84
75
92
105
97
99
89
94
101
89
71
98
86
102
77
72
83
93
99
107
99
78
82
105
81
74
71
98
87
94
96
106
105
105
82
77
75
88
75
99
77
93
107
101
102
92
96
79
87
78
74
109
89
88
100
75
89
70
85
104
99
109
78
91
70
103
76
73
94
74
72
93
95
75
109
73
73
79
105
91
95
82
96
100
92
83
86
85
88
72
108
91
95
102
93
70
99
92
96
108
83
96
88
99
84
106
75
102
79
88
72
95
99
97
101
102
85
86
72
105
85
102
100
85
98
97
94
99
96
87
72
95
89
90
109
85
91
81
94
85
73
103
101
73
84
91
105
75
83
105
105
101
80
105
92
91
77
102
80
83
78
106
74
105
97
72
78
108
92
82
102
101
78
92
80
81
73
81
99
77
70
100
75
73
81
97
78
96
78
86
85
78
100
76
71
99
106
90
82
80
88
84
99
79
86
72
104
80
82
105
101
105
78
103
100
78
97
79
72
97
95
71
107
100
83
85
94
76
84
80
90
104
101
87
93
75
106
81
103
102
96
93
77
89
84
82
85
99
95
89
99
105
104
98
84
83
82
109
105
77
79
107
94
93
78
99
99
96
81
80
99
98
106
99
108
93
71
86
94
105
91
97
71
86
79
96
102
78
105
76
86
70
76
89
86
78
96
96
71
87
99
94
85
109
96
85
81
93
95
105
70
80
94
78
108
80
94
104
105
75
96
82
78
78
74
83
81
108
85
78
87
103
89
74
85
102
91
97
78
72
77
100
87
103
79
103
81
72
101
105
71
91
104
103
73
94
98
82
72
86
92
101
76
97
74
99
98
94
98
73
89
102
72
88
71
103
70
102
87
78
98
93
87
85
80
108
95
85
90
84
108
70
93
102
85
108
78
91
93
76
101
108
99
96
73
99
95
87
75
98
102
81
79
83
80
89
73
103
95
92
108
74
99
73
89
71
92
105
70
105
71
81
93
74
76
78
70
87
95
72
87
75
86
106
83
82
75
105
81
81
107
106
87
109
93
97
79
73
79
72
89
77
86
77
80
83
76
95
73
90
87
98
89
89
79
96
79
100
104
82
82
75
73
88
108
84
76
94
103
77
95
104
71
78
82
103
105
87
91
100
89
78
94
84
106
76
73
100
98
96
71
71
100
107
98
102
74
94
70
71
106
105
84
74
80
86
77
87
85
70
80
76
103
74
86
78
81
76
83
102
108
102
103
86
101
83
86
107
81
93
77
101
79
103
94
93
77
92
101
71
102
88
100
96
106
78
77
105
94
97
86
101
93
102
73
87
103
89
100
72
98
88
71
88
86
70
92
98
93
105
76
85
91
101
87
103
98
97
76
93
81
75
82
105
78
88
109
107
106
103
78
108
76
87
76
102
96
85
72
104
105
83
80
89
92
85
89
74
88
85
74
97
99
98
71
91
102
101
75
74
100
108
90
88
71
90
102
106
76
86
88
104
96
91
74
84
82
104
74
105
90
73
97
86
91
86
92
99
78
83
99
91
103
104
105
75
99
105
108
106
90
88
101
97
90
97
81
77
84
79
97
99
91
93
95
91
98
80
75
72
108
99
85
71
90
83
107
70
81
108
77
87
91
99
103
92
79
109
103
85
91
72
72
105
80
105
101
97
78
86
74
107
82
85
72
93
86
101
72
80
96
91
82
104
77
87
70
105
80
96
82
100
93
93
109
82
99
94
91
88
81
74
98
107
88
90
85
94
82
102
87
98
97
78
99
94
91
100
73
103
92
88
107
81
108
84
105
95
91
98
73
95
99
74
99
105
109
104
84
82
94
78
98
100
75
77
96
104
74
74
81
87
75
79
74
109
79
87
75
87
72
78
79
86
106
72
77
77
81
73
85
96
82
85
71
93
86
81
104
71
76
81
102
88
94
91
95
103
71
100
101
107
107
107
84
87
88
107
95
70
100
84
96
72
71
75
95
102
90
104
92
106
72
105
96
75
108
70
81
88
107
77
109
82
83
87
82
79
100
82
106
77
70
88
84
83
92
72
73
94
80
92
109
75
94
75
95
103
93
95
90
95
83
81
92
109
72
83
87
89
71
87
95
105
96
103
83
81
106
76
71
94
79
75
105
79
71
85
106
101
98
94
72
77
88
104
98
108
99
104
84
107
80
97
99
74
82
104
75
73
71
88
87
93
103
71
80
72
106
80
83
101
73
106
92
82
73
106
71
78
107
77
72
93
95
88
97
82
98
91
93
84
93
90
98
84
89
94
76
102
71
109
104
102
101
93
86
101
94
103
91
100
96
89
93
80
77
76
88
87
90
72
96
98
84
76
88
91
91
74
91
80
71
74
82
105
99
70
85
103
87
95
109
101
91
86
105
76
72
101
71
89
97
71
94
106
98
92
97
89
104
98
71
87
89
81
97
93
85
101
99
71
85
74
94
90
83
107
101
88
106
83
95
81
104
80
77
92
73
92
85
102
109
102
102
106
77
104
84
99
74
74
70
86
71
80
102
75
72
88
73
84
91
102
88
71
85
75
86
97
96
99
91
100
84
102
88
98
84
73
92
82
99
94
103
83
70
89
93
87
99
85
93
82
98
94
82
74
99
80
81
89
104
88
84
96
108
89
95
79
85
75
106
75
86
95
78
103
80
109
91
94
74
105
104
87
95
84
77
91
79
95
86
99
88
85
97
109
102
73
90
72
88
94
76
93
77
102
107
74
95
93
87
89
88
79
108
102
98
86
104
105
99
80
77
96
88
89
87
97
73
86
88
70
102
90
107
97
96
75
109
75
99
103
106
96
106
76
95
93
92
109
100
93
86
84
101
103
97
100
97
100
77
94
82
80
102
95
102
95
77
103
101
90
107
109
100
74
82
97
74
92
108
74
81
86
88
81
87
89
73
78
78
87
98
90
96
103
72
77
87
70
70
104
99
80
103
93
85
88
79
78
93
100
74
100
95
93
90
97
107
109
99
87
93
106
105
74
74
98
100
84
100
71
107
104
71
93
95
89
93
105
105
75
79
109
71
90
78
81
107
82
97
100
108
71
79
84
97
70
87
98
107
100
94
97
74
85
105
88
83
79
100
86
81
73
98
78
82
102
85
75
99
70
89
102
78
86
84
70
82
103
105
102
100
101
85
77
93
105
89
106
84
73
89
87
78
70
100
96
99
79
86
83
83
76
82
106
72
109
76
103
85
83
86
87
103
103
105
91
92
99
102
91
82
70
77
107
104
100
102
90
75
76
87
96
98
91
85
89
106
90
70
104
105
84
79
85
109
75
105
81
85
107
73
90
75
78
96
82
96
89
80
109
88
87
97
83
96
77
90
98
101
78
108
80
94
96
107
95
77
95
102
106
74
96
90
87
97
97
98
78
77
95
98
81
85
79
83
99
109
89
81
102
104
98
76
80
101
105
100
70
104
76
72
108
106
84
73
107
83
103
74
76
79
108
91
77
79
76
95
81
90
71
74
92
107
92
103
80
109
70
80
81
108
91
71
72
102
78
94
86
98
80
82
95
71
90
77
73
72
70
91
109
94
71
101
85
71
94
77
103
94
94
105
73
99
83
107
101
77
78
88
71
84
84
96
93
84
104
102
102
87
77
80
102
90
73
81
89
107
95
109
77
97
91
109
77
84
91
76
108
87
76
88
79
76
91
109
94
78
102
103
108
76
105
94
108
77
93
95
87
71
78
89
75
85
100
101
78
96
109
73
92
100
96
86
77
79
101
81
107
70
84
95
90
72
83
109
88
79
107
103
95
100
77
95
97
106
105
88
76
78
88
99
94
93
91
82
106
71
74
76
83
74
106
88
81
90
97
109
106
72
92
89
91
105
83
88
79
104
74
88
70
78
108
98
82
89
107
76
94
75
107
77
80
101
96
88
80
99
92
101
81
97
78
100
72
86
88
100
107
104
103
107
109
105
72
94
95
96
105
83
88
91
78
85
87
84
94
72
104
81
109
70
94
97
106
82
105
91
108
98
96
105
104
74
72
94
94
79
77
75
70
81
104
96
77
108
99
97
84
72
73
70
74
72
73
72
81
105
108
81
87
100
92
84
94
77
88
77
109
76
101
81
96
84
72
89
86
74
73
107
98
72
82
74
93
83
89
87
73
82
73
103
105
88
72
87
95
108
100
78
93
102
87
98
73
85
101
102
99
103
76
106
104
104
107
99
84
71
94
85
92
93
89
86
82
103
75
100
92
70
85
82
87
78
90
79
79
75
90
104
75
107
90
79
79
95
86
75
105
99
81
106
72
105
84
93
106
81
85
75
102
77
98
80
89
81
95
95
76
80
108
70
101
109
75
97
109
79
88
90
99
73
90
71
95
80
97
108
81
70
72
107
107
87
100
73
92
74
94
90
103
82
102
104
107
94
80
96
84
78
100
86
98
71
80
75
88
72
105
99
104
86
74
108
100
101
99
83
96
96
86
73
95
74
78
78
84
102
73
85
90
109
104
73
101
78
100
102
75
82
99
107
77
88
99
78
98
78
70
72
102
98
95
75
78
80
108
81
88
85
93
95
73
99
108
98
102
77
77
72
87
70
80
107
97
93
108
105
76
100
78
80
108
89
98
88
91
108
82
73
79
98
101
78
96
82
73
74
92
102
100
82
94
84
95
99
85
93
92
86
81
85
82
97
92
85
87
81
78
78
77
84
105
71
96
107
86
104
71
103
71
95
80
92
79
83
73
92
79
104
100
93
83
99
91
109
92
102
77
108
103
77
71
92
78
98
103
77
101
102
109
76
72
73
98
92
82
101
93
109
73
86
76
108
97
100
80
100
70
75
77
99
102
82
72
96
102
108
81
92
92
84
83
70
93
100
82
84
72
96
77
70
82
70
83
109
99
89
90
76
81
86
78
102
75
78
104
72
97
85
95
96
75
82
83
79
71
80
79
99
71
109
102
88
106
73
74
95
89
81
97
95
84
77
81
108
103
78
109
101
104
100
81
82
90
79
90
70
86
109
98
97
80
91
82
90
104
79
72
99
91
78
92
100
81
81
78
85
72
101
74
102
97
99
70
105
73
109
91
91
91
90
74
95
75
84
81
92
86
96
86
104
81
70
92
108
71
82
92
89
71
74
101
83
77
80
79
94
88
74
100
103
108
72
72
84
73
78
98
94
99
76
108
78
99
74
80
86
102
79
91
73
109
92
71
109
93
84
75
72
103
87
109
89
99
88
75
72
80
99
78
81
87
90
73
85
105
82
89
90
78
74
84
100
96
92
87
91
95
87
91
103
86
92
71
89
86
87
100
76
106
105
109
92
90
108
93
94
83
86
78
72
95
73
95
106
106
106
86
109
101
89
78
83
70
80
106
72
103
96
75
95
93
72
102
104
84
104
74
96
106
101

