kroB150
150
1 1357 1905
2 2650 802
3 1774 107
4 1307 964
5 3806 746
6 2687 1353
7 43 1957
8 3092 1668
9 185 1542
10 834 629
11 40 462
12 1183 1391
13 2048 1628
14 1097 643
15 1838 1732
16 234 1118
17 3314 1881
18 737 1285
19 779 777
20 2312 1949
21 2576 189
22 3078 1541
23 2781 478
24 705 1812
25 3409 1917
26 323 1714
27 1660 1556
28 3729 1188
29 693 1383
30 2361 640
31 2433 1538
32 554 1825
33 913 317
34 3586 1909
35 2636 727
36 1000 457
37 482 1337
38 3704 1082
39 3635 1174
40 1362 1526
41 2049 417
42 2552 1909
43 3939 640
44 219 898
45 812 351
46 901 1552
47 2513 1572
48 242 584
49 826 1226
50 3278 799
51 86 1065
52 14 454
53 1327 1893
54 2773 1286
55 2469 1838
56 3835 963
57 1031 428
58 3853 1712
59 1868 197
60 1544 863
61 457 1607
62 3174 1064
63 192 1004
64 2318 1925
65 2232 1374
66 396 828
67 2365 1649
68 2499 658
69 1410 307
70 2990 214
71 3646 1018
72 3394 1028
73 1779 90
74 1058 372
75 2933 1459
76 3099 173
77 2178 978
78 138 1610
79 2082 1753
80 2302 1127
81 805 272
82 22 1617
83 3213 1085
84 99 536
85 1533 1780
86 3564 676
87 29 6
88 3808 1375
89 2221 291
90 3499 1885
91 3124 408
92 781 671
93 1027 1041
94 3249 378
95 3297 491
96 213 220
97 721 186
98 3736 1542
99 868 731
100 960 303
101 3825 1101
102 2779 435
103 201 693
104 2502 1274
105 765 833
106 3105 1823
107 1937 1400
108 3364 1498
109 3702 1624
110 2164 1874
111 3019 189
112 3098 1594
113 3239 1376
114 3359 1693
115 2081 1011
116 1398 1100
117 618 1953
118 1878 59
119 3803 886
120 397 1217
121 3035 152
122 2502 146
123 3230 380
124 3479 1023
125 958 1670
126 3423 1241
127 78 1066
128 96 691
129 3431 78
130 2053 1461
131 3048 1
132 571 1711
133 3393 782
134 2835 1472
135 144 1185
136 923 108
137 989 1997
138 3061 1211
139 2977 39
140 1668 658
141 878 715
142 678 1599
143 1086 868
144 640 110
145 3551 1673
146 106 1267
147 2243 1332
148 3796 1401
149 2643 1320
150 48 267
87
83
92
103
85
76
85
99
78
78
103
72
109
105
93
81
98
79
76
103
92
98
70
92
103
82
96
86
106
75
73
97
76
94
92
88
81
95
71
85
95
87
77
103
78
99
89
76
103
85
100
103
91
73
81
75
104
91
79
89
104
87
87
102
74
97
71
81
109
94
77
76
82
98
88
88
90
75
83
94
80
86
83
99
104
89
92
99
87
89
103
106
77
93
95
102
105
98
92
97
91
97
71
71
88
86
87
106
97
81
107
94
101
98
73
74
97
105
71
107
85
108
104
88
89
101
73
89
95
107
100
97
74
96
101
94
88
82
75
70
100
70
81
109
71
106
78
100
96
73
74
108
81
77
98
91
108
88
77
70
86
107
103
88
91
91
70
74
106
96
108
108
106
80
77
106
93
76
81
98
84
105
108
101
99
106
76
101
71
84
74
78
109
90
93
103
93
74
92
83
78
79
98
107
83
104
94
94
79
97
108
76
86
81
102
79
76
100
79
84
73
98
98
104
85
72
70
70
104
77
109
104
101
87
109
84
80
79
78
97
102
82
109
89
84
105
96
74
99
84
91
72
106
99
99
109
77
77
105
108
100
100
74
98
95
104
84
78
104
107
107
82
97
109
101
74
104
98
106
77
72
81
88
90
83
93
94
85
77
105
80
97
90
87
82
80
74
106
96
89
100
70
78
106
88
108
75
95
74
98
92
73
100
82
78
89
107
82
99
79
93
84
97
103
73
79
87
75
96
85
81
87
106
102
70
80
92
86
89
86
81
98
101
93
70
105
76
102
106
88
74
99
70
86
77
91
73
82
103
99
88
98
95
102
76
77
109
109
108
106
85
82
101
83
86
97
102
93
92
81
105
105
106
106
79
103
83
88
99
81
83
95
74
79
90
70
97
98
105
104
104
74
80
73
86
107
95
95
101
93
92
89
95
100
84
76
72
80
109
107
70
109
107
95
95
77
74
96
74
76
108
74
89
101
98
92
93
84
80
109
82
75
85
103
76
97
88
72
74
71
105
103
98
93
103
100
94
93
78
107
78
85
76
75
86
75
75
90
72
76
89
99
93
102
86
74
73
87
86
71
76
86
89
106
88
104
103
102
95
85
103
81
93
108
105
90
79
84
99
84
98
93
81
90
86
70
89
91
92
80
78
105
86
99
91
108
71
96
98
100
107
70
93
95
96
97
101
80
84
88
73
73
88
94
74
106
78
99
76
82
96
107
103
109
89
104
95
70
103
84
89
103
73
81
96
87
85
108
78
84
94
87
94
106
100
71
82
98
84
101
104
78
74
80
83
83
92
83
87
104
73
99
108
71
73
85
87
105
94
85
102
95
100
105
82
78
101
79
90
82
97
84
77
103
108
88
88
108
87
78
81
105
84
79
75
106
108
97
76
85
75
108
99
80
103
94
93
86
84
96
90
108
108
105
99
94
101
81
87
104
83
104
103
74
96
103
86
99
81
87
77
81
99
90
94
104
85
103
103
74
88
81
105
86
101
106
106
99
109
84
104
70
87
89
95
82
101
99
108
104
72
78
99
88
102
85
102
71
72
98
71
97
73
98
96
104
108
96
81
101
93
81
98
87
107
80
106
82
108
75
71
82
90
70
102
88
92
70
93
92
88
96
87
75
103
91
96
107
90
100
105
101
92
97
71
98
96
87
79
74
100
87
101
80
77
79
93
74
102
70
73
71
99
82
77
74
75
101
79
94
78
92
106
74
82
90
77
72
92
101
104
105
70
72
95
99
100
97
90
77
91
99
107
105
75
102
98
91
100
94
109
90
104
90
100
93
104
70
77
72
98
74
83
103
88
84
76
98
76
84
83
105
91
95
75
98
72
94
85
97
99
103
100
95
105
76
95
94
85
107
95
75
79
103
97
77
76
92
78
70
79
96
81
72
79
88
105
97
104
73
72
74
86
104
75
108
104
76
74
100
89
83
90
105
109
82
90
83
90
89
75
94
100
85
84
104
78
88
92
79
77
94
81
78
71
90
97
98
85
97
103
72
93
92
72
81
83
100
102
104
72
73
92
100
107
84
92
97
72
78
78
84
78
87
73
86
86
107
95
104
80
75
108
81
96
80
79
76
97
93
108
77
104
70
105
93
101
83
96
100
102
89
109
95
76
99
88
82
81
77
101
103
98
89
98
80
90
86
96
81
96
86
70
74
90
102
98
91
73
107
105
89
103
99
106
88
70
106
86
97
74
94
82
71
82
109
80
84
108
86
99
105
79
77
90
86
84
91
79
70
79
77
72
95
83
83
109
88
100
76
99
92
97
104
72
71
73
78
96
94
109
80
104
99
102
92
73
97
104
100
79
101
88
95
107
94
98
73
85
79
79
97
94
90
108
82
109
71
86
100
72
77
93
100
70
88
70
97
83
76
94
80
107
105
91
83
82
88
85
93
108
92
101
73
80
84
101
76
90
72
105
80
98
90
92
90
79
72
78
78
95
103
92
73
91
98
80
72
87
90
99
71
104
88
96
84
73
97
99
86
79
90
74
104
83
85
75
74
81
74
102
81
103
105
108
102
87
86
72
85
96
71
93
95
106
98
104
106
89
106
79
79
84
100
74
101
78
85
97
100
85
79
95
100
81
83
101
79
71
88
98
76
102
101
73
93
106
91
100
84
88
87
96
105
73
79
104
71
74
83
71
72
106
102
80
86
86
92
104
92
82
86
70
100
89
76
73
90
103
107
100
88
93
103
94
91
93
82
77
87
86
78
83
95
82
87
105
71
102
77
92
77
106
97
93
85
105
109
85
84
91
105
72
80
89
75
73
70
73
70
71
99
84
95
95
87
107
76
82
79
97
93
81
74
101
72
101
71
70
104
84
93
108
77
89
90
101
98
106
72
109
91
104
93
90
85
75
81
103
99
84
86
102
86
103
83
108
84
81
106
71
108
70
99
91
73
70
80
86
101
96
90
73
80
80
75
80
105
77
70
100
76
70
92
70
109
103
97
94
84
102
102
70
74
83
103
80
74
87
72
87
75
100
100
101
85
101
95
96
107
95
93
82
88
105
105
74
100
72
98
77
73
94
83
73
81
108
74
107
99
85
76
103
77
108
71
72
100
97
87
81
98
81
93
75
95
76
77
103
75
106
71
79
90
72
97
81
98
103
83
108
105
87
75
109
107
74
81
107
106
99
109
82
94
89
72
85
80
103
81
104
89
102
105
77
104
100
96
85
92
79
97
74
79
77
76
90
92
86
108
86
82
108
88
76
80
81
101
74
92
98
107
84
87
107
78
103
91
75
73
103
88
89
78
70
91
95
81
94
88
78
86
97
106
91
80
87
88
88
99
80
106
70
84
90
84
97
88
77
82
100
74
109
94
95
73
80
109
86
73
105
80
76
105
84
90
88
109
75
94
95
100
72
99
74
101
83
89
105
109
87
86
88
93
80
93
80
106
88
95
73
92
90
76
80
83
94
75
92
95
95
104
77
103
89
102
70
92
79
86
90
71
108
86
93
80
72
109
93
89
109
86
73
106
83
84
80
86
81
109
93
94
92
97
98
92
93
108
107
83
70
82
92
101
77
107
109
101
93
88
109
78
89
108
77
75
82
70
86
81
75
71
102
98
107
95
86
75
82
101
88
80
104
102
96
103
90
108
95
82
95
75
104
89
82
89
77
103
96
85
89
76
109
97
108
99
90
90
74
100
105
80
93
109
100
81
108
109
75
98
84
81
101
97
78
90
73
85
89
87
109
79
74
103
103
109
97
89
89
100
85
104
98
85
107
97
107
108
99
103
88
101
91
97
104
80
96
81
70
71
106
97
89
100
72
106
88
104
100
93
106
82
104
85
77
85
72
108
77
86
98
109
96
92
100
82
96
96
101
95
89
87
95
94
107
101
91
109
81
85
77
109
91
71
81
108
98
80
79
101
90
88
83
79
109
88
104
75
101
82
70
82
73
78
72
87
108
106
107
104
83
90
93
82
94
104
98
101
88
86
85
86
98
81
109
85
93
88
86
102
103
86
97
75
95
76
86
106
92
106
97
83
76
103
99
77
89
104
91
81
104
109
100
94
101
106
81
95
105
77
70
98
93
91
104
75
108
72
96
73
107
102
100
102
84
77
71
100
101
93
107
86
74
104
75
77
90
91
77
85
88
86
104
72
96
106
91
96
102
75
94
90
73
94
77
73
93
92
82
105
89
95
105
78
102
77
91
92
98
91
99
104
76
84
101
78
80
82
72
108
101
84
97
87
70
80
106
77
86
99
75
99
79
103
72
80
84
108
90
81
85
75
91
94
75
102
76
101
93
108
73
70
107
108
72
95
105
71
101
88
86
75
82
105
109
93
101
83
99
95
90
85
107
74
99
72
78
77
93
109
87
79
77
77
78
82
91
105
91
73
78
100
78
99
104
101
108
80
82
97
93
75
75
80
83
89
93
95
109
89
73
86
93
92
77
91
71
95
91
87
108
71
107
71
70
108
91
86
100
97
71
105
80
99
76
91
79
95
97
98
96
73
71
89
89
75
96
79
86
99
87
72
84
72
94
107
93
70
78
92
77
95
74
107
84
108
109
76
77
93
93
96
103
86
80
92
89
99
94
73
75
101
87
92
74
109
71
102
109
88
102
79
94
99
85
103
99
73
78
101
70
107
83
107
105
79
106
105
70
93
72
89
102
101
75
83
88
85
108
82
108
106
101
103
105
76
71
85
100
96
72
108
106
72
106
82
79
101
95
94
88
104
84
79
102
85
76
101
76
105
71
94
99
109
98
76
76
91
89
85
102
89
74
91
72
77
107
100
73
71
79
93
102
77
109
91
84
82
81
74
79
80
87
90
98
81
70
78
96
88
89
79
82
85
76
81
90
89
101
107
71
102
72
85
98
91
104
85
88
95
99
91
105
107
77
78
73
109
103
78
85
98
105
75
96
92
70
101
70
84
88
94
105
98
76
102
82
99
95
85
74
90
72
102
81
82
104
82
72
106
87
82
106
74
97
97
88
101
73
105
109
96
101
109
86
74
82
71
103
76
73
100
98
107
90
100
73
108
72
86
78
71
70
83
97
87
80
90
73
105
100
92
103
83
82
88
88
103
107
98
89
95
78
96
95
75
81
78
71
98
93
106
76
93
82
106
88
90
78
108
93
79
96
70
107
93
74
71
93
80
86
94
79
108
103
90
83
90
107
82
92
75
88
78
98
92
109
93
72
106
83
80
82
72
100
103
107
71
74
99
94
86
83
99
91
106
91
99
100
95
106
90
88
96
104
74
96
99
79
94
81
80
88
87
97
76
72
79
101
81
76
82
98
104
98
81
75
90
106
89
99
91
102
100
75
96
102
71
78
106
86
91
74
84
100
95
98
90
108
78
74
90
87
93
75
71
92
80
80
107
101
70
96
85
77
82
84
100
88
83
83
75
92
70
85
77
103
82
101
90
105
92
106
83
75
93
103
82
88
97
74
70
107
73
90
86
105
107
93
99
72
71
72
91
105
86
96
83
74
87
73
85
94
74
101
99
73
72
103
90
95
90
81
90
108
97
98
101
73
78
84
78
102
84
93
85
107
74
100
80
92
109
95
83
76
94
99
99
96
72
83
87
71
84
108
80
105
80
73
75
70
93
98
77
104
72
106
71
108
100
97
105
77
94
95
99
97
81
107
98
80
91
107
104
106
104
76
72
105
85
77
96
87
87
103
87
72
93
103
81
83
75
87
97
85
89
105
78
95
92
94
97
106
83
71
94
104
108
106
73
92
88
94
83
100
76
82
85
78
98
83
92
105
71
85
86
93
86
101
92
94
93
76
80
77
79
70
96
103
82
91
92
106
89
94
77
86
92
77
94
80
102
88
88
101
104
93
80
92
85
82
83
84
70
77
94
81
94
81
87
81
96
90
88
92
88
107
101
83
95
78
107
88
107
100
92
95
102
101
72
75
102
74
78
83
109
73
91
94
74
80
106
78
88
78
78
105
77
71
76
109
77
86
84
85
88
80
104
87
74
94
70
89
89
91
83
75
76
103
81
109
90
75
90
84
97
94
85
98
88
72
73
100
103
77
96
96
101
108
102
94
74
96
81
70
102
78
99
106
98
88
77
70
94
82
87
85
90
83
78
109
73
103
101
71
99
90
103
80
74
71
99
99
95
82
73
82
94
75
77
106
87
100
90
95
94
108
80
96
109
85
96
109
105
91
79
94
82
79
106
77
95
106
82
102
89
70
80
86
79
81
74
90
75
107
94
82
98
83
102
70
97
108
108
71
86
94
104
97
101
98
81
103
76
102
73
72
105
106
92
73
90
82
105
83
70
93
73
86
82
93
88
86
86
80
82
109
97
70
104
105
106
100
83
71
97
97
104
96
93
103
77
91
80
108
99
84
104
73
84
91
102
107
71
104
84
88
73
86
91
84
94
109
91
109
81
76
94
107
80
70
95
109
92
93
103
72
71
93
89
97
87
98
95
84
90
108
75
94
106
98
106
104
99
101
78
109
90
95
92
86
97
75
102
91
88
94
73
86
86
86
81
99
97
74
75
82
106
75
99
104
76
98
80
90
102
98
93
75
71
86
89
89
90
102
89
107
98
94
100
93
96
88
104
96
90
100
99
75
70
84
76
102
96
93
99
105
88
107
71
81
80
75
79
99
84
87
74
99
82
102
82
87
92
74
86
87
92
94
104
104
71
104
87
74
77
91
77
103
97
80
91
93
108
86
108
109
70
79
80
84
87
85
90
90
91
101
107
90
109
74
96
97
93
85
106
75
84
100
85
82
72
81
75
104
99
109
82
79
73
109
91
70
74
75
76
87
76
79
88
71
101
96
109
70
95
109
78
80
85
81
91
107
101
79
102
74
79
74
79
88
100
81
83
73
90
88
71
94
104
82
107
79
93
70
101
87
94
72
100
74
71
97
79
82
105
73
84
82
109
108
101
98
88
91
72
109
72
101
93
103
78
78
94
106
84
102
106
83
81
100
98
105
99
85
73
94
100
104
109
74
80
76
75
83
109
108
98
105
76
74
77
81
71
73
71
96
108
103
99
75
105
107
82
109
88
92
97
105
77
99
81
88
85
97
88
108
106
107
89
102
85
109
103
102
107
101
96
73
82
106
96
71
93
77
75
93
95
102
95
73
109
74
80
77
95
83
102
101
72
73
101
100
75
104
100
100
81
105
96
100
104
102
73
87
102
72
76
75
95
99
99
71
83
93
91
73
84
75
76
78
70
100
94
107
87
106
98
84
97
94
70
75
94
83
94
99
100
78
71
101
105
92
77
99
72
109
88
107
84
104
82
87
109
94
84
106
105
107
82
109
85
107
84
92
108
89
103
106
70
102
107
108
76
80
109
108
84
89
72
77
105
98
96
95
108
95
96
75
88
92
84
81
82
80
97
95
80
89
108
86
77
81
80
88
74
96
92
92
86
89
108
101
72
105
102
71
108
102
72
76
109
76
105
94
75
94
77
94
109
74
109
85
72
94
70
104
88
106
96
97
94
78
90
76
75
94
108
103
85
83
86
70
104
83
87
102
70
91
96
80
73
93
106
72
72
101
85
102
72
80
99
92
85
95
108
82
98
96
75
79
86
70
96
97
103
90
104
87
91
74
106
84
100
73
91
78
92
102
109
104
106
90
107
85
83
92
96
79
77
103
97
79
87
88
96
101
101
80
90
97
107
104
75
99
80
94
89
89
109
90
94
103
77
78
90
92
104
78
80
74
107
108
103
70
82
103
101
73
80
93
87
102
78
71
83
85
106
92
74
87
106
88
88
107
106
94
78
105
98
76
107
109
76
102
102
93
108
70
86
94
89
98
109
109
107
102
83
106
85
84
71
81
100
73
84
108
89
106
105
75
108
102
80
94
73
102
92
108
96
98
77
108
87
94
78
77
82
101
81
105
78
77
81
79
99
75
72
105
73
88
74
99
76
109
97
86
106
106
107
75
75
77
97
99
83
89
89
95
101
77
78
76
104
87
102
73
86
104
93
100
74
106
89
81
82
96
93
100
86
76
97
74
72
102
82
99
76
84
102
83
98
93
107
89
81
75
88
95
94
72
76
91
85
79
78
85
95
87
108
106
70
75
72
96
85
78
80
92
91
70
85
88
105
93
102
81
81
96
70
72
90
89
75
103
82
88
97
102
83
90
86
94
81
104
103
103
90
108
107
101
103
103
70
104
107
70
97
84
105
102
104
109
75
93
76
103
88
76
82
94
101
98
75
98
104
98
109
93
81
80
75
71
81
79
89
97
103
103
91
73
73
85
93
86
104
92
101
77
72
99
97
91
70
102
83
108
74
73
92
83
71
74
96
98
73
103
102
92
78
80
99
82
104
86
79
75
106
108
72
95
97
101
70
70
93
71
87
84
80
102
91
81
71
91
82
94
78
86
109
105
88
74
75
109
95
80
109
76
89
95
76
103
92
91
73
79
75
99
109
84
106
96
98
70
70
82
90
107
73
92
102
80
84
100
106
75
101
84
95
96
84
100
105
99
97
76
106
102
80
100
70
107
103
71
89
83
79
79
86
80
81
106
90
89
75
86
72
108
83
105
85
105
108
84
79
99
79
72
74
74
91
90
99
88
88
99
96
105
88
99
95
70
103
87
103
83
76
72
109
72
89
79
71
85
72
70
102
105
86
104
95
77
77
75
74
100
108
109
72
94
89
85
102
101
106
100
95
71
104
75
73
86
70
70
102
101
89
74
102
84
103
83
83
85
101
105
109
87
108
76
71
98
107
93
74
85
91
103
88
101
87
78
92
103
82
79
96
96
102
72
95
75
106
97
108
75
83
84
106
81
87
88
86
71
102
92
106
102
74
106
100
101
104
74
94
83
102
105
94
96
80
97
97
95
70
83
76
86
81
106
83
81
94
106
77
76
73
97
80
95
78
85
97
87
83
102
71
82
90
84
105
83
102
84
92
88
100
88
73
96
93
93
103
96
96
81
101
96
109
92
75
106
95
102
89
90
106
106
95
108
77
89
79
82
97
90
88
101
84
72
93
103
87
92
77
79
102
109
108
108
97
86
74
77
94
79
75
88
82
78
95
105
88
95
74
109
105
73
102
88
77
76
79
108
88
80
103
76
88
71
100
88
78
102
71
73
83
87
86
79
93
75
77
88
99
70
80
100
77
108
76
95
87
99
87
87
72
72
84
79
109
86
99
107
83
100
105
93
70
71
92
80
99
104
106
98
109
103
107
79
94
96
107
107
107
77
101
72
102
100
84
82
78
98
91
95
81
88
96
107
101
70
100
106
100
77
87
79
70
97
89
101
99
79
84
100
73
74
104
71
74
76
95
83
90
108
83
106
96
107
108
73
83
100
102
103
103
75
74
87
103
100
100
95
85
88
86
82
104
91
83
75
78
105
93
76
98
91
91
77
79
100
109
88
70
97
82
93
92
81
93
106
80
81
99
85
107
75
72
101
97
87
91
93
103
106
79
91
94
71
75
96
95
92
75
96
86
86
104
85
76
79
95
87
96
87
70
79
94
88
76
100
75
71
89
77
96
80
107
72
85
97
106
107
95
98
103
105
93
106
89
71
79
86
87
79
80
78
93
85
70
96
105
80
87
106
85
99
71
90
74
109
95
71
98
70
88
102
103
75
104
70
107
91
76
93
103
106
71
78
80
78
82
91
79
97
77
88
71
87
100
72
76
88
101
100
82
72
73
96
76
93
90
80
103
89
100
92
86
72
70
88
95
100
91
87
109
103
84
73
80
96
88
98
74
91
71
85
99
90
83
97
79
96
72
74
86
104
70
107
108
105
77
91
98
85
96
94
85
90
84
94
86
96
83
89
106
92
92
84
99
92
102
96
70
100
77
84
102
89
83
83
89
100
83
72
97
82
82
103
94
73
94
86
74
101
100
100
94
92
101
104
107
70
97
101
83
81
95
108
88
76
74
107
93
75
72
109
77
90
88
107
80
85
90
81
85
80
76
99
76
98
89
81
91
88
84
81
108
87
102
76
109
89
77
84
104
84
93
77
100
71
107
88
108
71
87
96
102
81
82
87
102
104
105
88
84
97
81
83
91
101
75
84
76
80
105
100
99
88
74
85
103
71
74
72
88
108
86
106
100
71
103
86
91
76
109
84
76
98
77
75
79
77
70
74
108
104
80
78
92
71
78
103
103
99
94
107
101
95
103
79
81
99
90
107
91
95
76
77
76
91
91
81
104
85
102
80
79
90
98
79
76
72
98
98
106
99
79
88
75
95
97
103
108
86
76
75
101
81
94
76
109
84
88
70
102
70
84
70
108
78
102
89
99
76
102
78
82
87
108
103
99
107
108
99
85
78
109
72
75
98
77
72
94
109
95
89
88
95
87
90
99
76
101
75
98
100
89
92
93
87
86
104
75
92
105
91
91
75
108
105
84
82
70
97
78
85
70
91
80
82
104
78
100
76
94
101
87
94
99
90
93
98
100
92
93
82
80
85
104
87
74
71
80
88
108
104
87
94
101
99
85
77
86
105
103
77
106
88
84
90
85
75
89
81
79
82
71
109
88
99
83
88
102
89
87
93
100
76
80
78
70
81
104
73
90
100
100
97
89
75
104
98
87
100
81
108
102
106
83
92
98
76
101
72
97
95
74
97
81
101
73
70
70
85
79
86
92
93
99
78
74
102
74
76
72
71
101
91
74
84
88
97
85
89
108
93
98
81
95
84
89
100
82
78
72
88
83
108
91
70
92
93
102
89
100
106
81
99
77
94
75
89
86
74
82
88
81
80
98
80
79
102
76
103
75
77
97
105
100
99
72
87
71
70
100
93
85
98
105
73
81
76
104
73
84
96
97
83
108
88
80
83
90
102
100
105
108
101
84
73
99
98
74
103
85
80
77
74
101
101
73
72
73
103
82
90
76
107
81
98
93
95
77
82
81
78
86
103
77
100
103
94
86
106
98
78
92
109
88
70
84
106
80
80
109
85
96
78
77
90
82
75
109
107
81
86
98
100
77
99
70
107
98
82
103
75
103
92
77
75
94
75
98
75
71
89
93
87
83
100
103
79
70
88
74
109
83
86
95
97
94
92
71
90
102
77
108
77
106
106
105
91
78
96
103
70
78
84
105
92
90
85
98
88
98
105
102
93
84
74
86
100
84
90
88
96
75
93
87
104
99
87
78
101
73
94
107
100
92
80
90
86
102
103
94
102
89
92
95
83
99
75
105
95
101
86
98
87
96
108
70
75
73
83
78
88
103
99
94
93
106
85
102
91
86
100
108
73
88
107
103
78
89
80
71
104
97
79
75
101
86
97
107
96
84
95
72
86
103
105
72
105
87
84
78
92
99
92
74
81
98
70
109
80
101
97
72
96
105
77
85
75
92
85
93
77
70
97
99
85
82
104
90
71
108
108
75
97
93
70
73
85
109
91
73
103
80
103
83
95
77
81
94
97
99
87
100
83
92
76
81
94
79
95
98
105
96
77
107
98
99
106
82
87
73
100
106
108
74
104
82
85
92
106
80
78
106
95
104
106
105
93
105
73
79
78
89
101
108
72
72
71
78
104
107
109
79
80
98
95
82
71
108
74
71
72
73
76
98
86
81
89
107
78
83
78
105
93
96
100
72
84
105
103
101
105
94
88
95
80
104
103
73
73
97
77
101
84
75
97
99
90
103
97
90
78
95
76
70
109
85
70
99
89
78
99
105
76
73
79
80
99
92
102
94
80
105
71
71
93
77
78
92
78
106
75
95
70
93
109
78
84
74
90
70
88
78
107
89
105
78
84
99
105
102
74
90
107
101
104
76
99
87
83
70
87
106
77
90
77
85
95
104
77
70
90
72
80
75
71
78
97
108
85
71
106
87
76
100
106
91
72
93
71
97
72
72
95
103
95
74
99
95
99
84
85
81
100
74
73
108
103
72
98
98
92
77
87
93
84
85
94
76
95
106
103
107
93
83
101
106
99
71
96
100
104
84
86
82
89
83
99
73
106
102
87
106
71
77
103
105
74
93
102
72
76
98
102
85
89
78
81
73
71
83
85
74
72
85
95
75
81
92
103
98
82
97
93
107
102
86
74
83
101
99
75
72
89
94
105
103
101
98
100
93
109
108
81
82
97
90
97
75
92
100
84
95
93
72
78
101
83
105
97
84
86
103
91
98
108
85
106
81
89
103
77
87
107
106
84
93
77
88
91
98
97
108
91
81
84
108
81
96
84
77
99
90
93
90
96
80
93
80
88
75
77
84
76
93
81
86
87
105
106
74
109
80
98
92
98
78
78
100
87
108
91
106
104
103
82
76
82
96
86
102
107
70
89
81
90
97
73
103
89
88
96
94
95
85
93
99
83
71
109
105
78
97
86
82
105
97
77
100
95
76
94
88
108
72
100
79
78
90
74
86
82
88
73
77
106
90
107
106
94
85
103
74
89
79
86
75
101
90
70
91
81
83
84
77
98
90
71
102
88
71
75
99
91
75
108
70
101
77
91
88
81
86
101
104
77
103
74
77
100
105
76
89
103
109
81
78
109
93
82
102
97
74
109
77
91
88
104
89
105
103
87
78
102
76
103
75
100
95
100
89
87
94
88
93
106
97
93
75
94
95
93
109
79
74
80
93
106
79
94
104
92
73
101
91
93
77
109
90
93
104
82
94
77
96
82
95
89
89
104
83
108
98
96
70
85
103
92
82
96
72
78
104
72
73
94
80
92
91
79
70
88
83
93
70
78
73
90
96
76
76
98
87
103
77
98
79
72
81
96
101
78
82
103
76
85
72
82
85
85
100
84
94
78
94
85
86
90
88
88
80
83
74
74
102
88
95
85
88
90
96
70
86
99
95
91
82
105
71
97
105
80
98
77
91
70
83
106
88
90
77
99
78
87
99
97
89
102
106
95
107
74
108
84
84
96
103
80
74
70
101
75
92
91
84
98
108
80
105
84
108
93
96
100
83
95
88
95
80
89
93
89
101
105
109
75
103
84
72
71
93
108
97
87
96
72
82
99
74
93
95
74
98
92
74
107
94
76
71
76
106
89
104
91
96
85
84
106
80
79
83
88
99
81
93
70
90
78
76
72
85
92
87
85
73
94
89
96
104
77
97
96
103
79
75
84
100
80
95
75
79
105
80
99
91
79
104
81
85
86
82
80
84
93
88
85
97
99
102
83
97
82
102
82
96
74
94
78
97
90
79
84
107
75
79
96
86
93
82
85
87
103
76
77
96
88
74
90
75
83
97
75
104
83
95
75
101
91
105
87
70
105
77
95
85
108
105
70
83
100
83
85
96
105
106
93
104
78
85
92
87
71
99
98
109
81
106
83
93
73
76
96
91
79
95
74
77
92
76
94
107
83
91
72
81
76
108
73
101
70
97
106
84
70
74
70
82
91
81
82
97
84
87
97
73
92
87
78
81
92
90
72
86
74
106
77
82
89
99
72
78
73
78
85
99
72
96
88
92
81
106
104
72
92
107
73
96
70
83
74
76
91
89
84
99
105
104
101
74
87
93
92
84
78
108
93
99
94
99
79
78
84
103
109
99
106
86
90
71
87
109
88
100
89
75
106
74
81
93
88
74
102
107
107
70
77
75
106
93
71
109
85
70
98
87
104
74
101
90
90
87
71
92
70
82
87
71
97
92
73
97
70
97
87
78
94
77
70
91
100
80
83
93
80
92
78
74
90
76
101
93
82
71
76
88
93
85
108
92
75
105
81
77
78
88
73
92
77
97
106
109
106
93
75
98
105
73
93
95
99
97
107
105
106
80
88
104
93
86
80
108
102
104
74
103
106
78
100
103
72
81
96
95
94
100
101
78
88
76
105
72
91
99
78
108
81
81
98
94
78
92
84
86
91
98
107
97
80
92
97
77
103
94
96
75
78
76
100
72
109
87
81
100
105
71
78
96
73
99
83
89
95
88
87
106
89
95
76
73
89
90
79
72
105
87
75
95
75
93
93
104
80
87
94
99
95
80
108
100
96
70
74
73
98
105
81
88
90
94
70
89
93
103
70
79
87
109
104
109
101
97
106
70
96
70
71
70
83
84
103
103
79
73
71
70
101
72
98
88
108
71
80
87
99
91
71
98
73
71
95
91
83
85
74
74
102
76
108
107
78
91
87
107
94
85
90
89
97
109
75
98
80
83
82
109
77
72
80
73
103
94
97
91
87
92
86
108
106
89
85
99
104
86
108
71
93
105
100
96
102
103
91
78
102
74
101
82
89
83
76
84
73
90
109
108
103
76
76
109
92
76
91
70
105
93
71
99
92
94
92
92
99
79
106
85
70
99
80
101
104
95
72
83
78
90
91
70
108
77
70
99
108
93
109
109
80
87
79
95
106
91
90
78
90
108
105
85
80
79
91
88
82
106
70
102
80
71
91
73
70
72
76
79
106
101
99
94
86
108
77
75
96
105
79
108
73
79
95
103
107
109
71
106
94
108
93
93
93
80
86
77
76
109
85
106
101
108
94
106
75
102
80
95
78
96
98
95
89
71
77
100
72
70
106
83
94
70
78
96
86
70
75
74
96
75
81
74
70
97
109
74
71
98
96
76
84
79
91
88
90
85
81
90
79
89
71
107
88
80
79
103
90
80
75
72
80
83
96
73
101
93
80
109
98
75
101
96
90
78
83
102
99
97
85
91
96
79
99
98
93
97
74
99
83
71
109
87
85
100
98
77
74
71
72
106
91
95
88
108
103
70
89
88
78
82
89
85
75
88
96
105
109
81
71
106
95
106
97
103
103
95
72
104
92
104
84
91
84
102
96
97
108
79
101
96
105
104
99
98
79
83
93
70
88
74
108
93
103
98
103
88
94
107
90
89
108
103
76
87
83
97
85
85
81
88
104
109
109
92
93
105
109
89
82
90
94
106
107
109
91
79
88
99
97
81
102
79
99
109
105
86
73
96
80
90
94
90
73
71
90
86
78
82
85
73
80
78
70
73
92
72
75
72
83
86
73
73
94
100
87
74
73
95
78
90
104
70
107
85
96
78
72
102
71
108
103
100
94
72
105
96
101
96
79
86
96
82
103
98
89
79
96
85
87
76
97
80
101
75
79
72
85
106
86
106
87
73
107
73
108
74
71
86
80
100
94
104
72
88
89
108
72
72
80
102
72
84
84
73
80
88
84
91
105
83
70
85
70
88
105
105
83
98
104
85
76
84
97
71
106
79
79
81
82
71
77
103
70
104
77
78
96
108
80
71
83
81
94
85
108
97
96
108
106
90
84
90
74
87
104
106
86
102
91
70
95
76
89
101
104
86
93
70
77
73
92
92
92
92
87
98
82
108
81
73
89
72
82
103
81
103
75
106
77
103
91
86
79
103
74
75
70
103
100
106
103
78
80
105
90
76
81
78
87
82
92
80
73
102
83
100
105
99
74
71
78
73
96
71
107
73
89
87
97
83
81
90
79
99
107
79
87
73
91
94
108
89
89
99
73
83
95
96
99
107
100
80
81
99
98
97
106
96
85
81
96
75
70
85
92
88
87
70
91
108
103
93
103
98
103
95
97
95
102
100
77
87
99
109
94
87
89
101
93
85
96
82
84
85
81
108
87
93
98
77
93
75
83
88
98
94
88
79
97
106
80
96
98
95
101
104
102
100
93
83
90
105
72
90
83
82
75
94
79
107
109
76
77
80
88
74
85
83
74
105
106
100
76
107
103
76
83
102
88
74
93
98
99
82
94
96
79
83
100
100
100
96
72
100
99
89
94
97
102
75
94
109
91
77
84
85
86
76
76
90
101
105
75
99
80
82
90
109
104
79
76
101
70
101
98
77
79
96
85
93
71
92
92
76
101
85
94
88
70
96
74
106
84
82
93
93
87
95
108
88
100
85
90
82
86
82
85
78
82
108
92
71
96
104
99
78
79
76
99
97
87
105
83
78
109
83
108
73
98
91
91
82
109
87
104
106
75
88
95
72
84
108
100
95
79
77
109
98
89
98
90
83
90
93
88
87
104
101
79
78
96
84
105
98
90
76
108
95
101
77
105
106
99
74
77
108
94
85
96
89
107
104
85
75
78
86
73
101
78
72
80
85
98
76
84
81
100
108
71
78
93
91
107
109
73
85
103
87
100
87
93
98
78
100
90
100
75
106
102
103
86
77
77
70
87
74
109
79
74
78
105
89
90
104
108
96
77
93
74
103
82
99
76
70
73
80
83
100
98
83
103
102
80
74
95
88
103
102
108
83
92
76
89
96
108
102
86
84
88
90
78
77
87
105
109
108
108
98
86
75
82
103
99
89
101
81
102
92
75
72
80
86
98
109
89
106
84
100
103
105
89
76
106
88
107
81
95
85
72
100
83
98
91
96
99
73
108
88
74
81
81
80
99
103
77
74
71
88
81
74
80
102
96
91
95
81
95
75
92
105
108
92
100
105
85
93
79
93
85
73
106
104
76
102
91
95
76
105
100
90
75
95
89
92
109
79
109
80
73
87
74
95
80
92
79
87
105
78
95
102
81
83
88
88
81
106
81
109
96
75
88
95
98
85
90
90
97
80
92
76
75
101
106
87
85
91
86
101
87
83
75
84
103
109
106
82
74
92
85
90
104
80
106
87
103
75
99
81
107
103
99
86
109
77
75
90
73
81
87
74
85
76
74
94
95
97
97
77
86
93
79
101
92
97
92
75
97
81
75
72
83
98
76
93
102
80
79
104
71
93
107
71
93
81
94
92
89
86
101
90
101
107
102
96
84
108
92
107
89
88
83
104
106
91
109
74
78
108
92
81
100
73
81
100
70
82
101
72
86
84
86
89
96
103
75
104
89
90
75
86
78
102
75
105
79
96
103
84
109
106
76
83
90
108
107
72
104
95
72
103
85
91
99
81
78
106
102
87
74
108
81
93
72
92
99
98
90
107
106
84
108
75
101
73
104
94
71
99
92
105
86
108
71
99
101
99
79
82
87
109
87
81
78
79
95
98
91
83
100
74
94
90
90
93
79
97
95
104
78
94
97
94
105
109
91
92
92
78
92
81
70
81
96
88
97
93
100
105
82
101
108
87
82
109
103
98
100
91
109
96
88
73
104
79
95
90
81
95
88
83
108
94
75
108
70
75
76
103
78
103
81
72
74
105
103
85
100
89
99
81
101
71
85
107
95
93
97
76
73
74
105
73
95
80
77
102
81
81
77
84
77
109
88
83
103
79
78
76
79
74
75
104
108
85
100
85
104
70
103
91
76
78
86
73
86
97
77
102
79
74
77
77
74
100
95
79
90
107
100
79
107
76
109
83
100
107
79
87
75
84
89
94
73
108
89
75
96
88
91
92
106
78
91
73
92
83
70
100
83
92
84
105
93
89
97
87
92
87
92
96
86
101
71
86
96
82
80
102
85
101
95
97
89
92
97
88
91
105
84
97
106
90
101
88
79
80
71
103
108
91
76
96
75
83
104
98
90
106
92
99
101
104
89
109
93
95
77
84
104
104
99
70
80
93
86
84
72
81
70
105
101
85
71
72
73
93
101
107
70
82
85
81
105
97
72
95
109
100
73
107
97
87
97
76
108
109
104
70
97
76
95
101
86
71
76
80
73
107
78
72
92
108
82
97
96
80
109
88
81
76
99
85
105
102
87
83
95
82
91
78
89
89
107
84
95
96
101
95
74
77
91
82
101
70
77
98
91
109
104
87
105
71
84
83
101
93
85
106
96
93
87
91
96
97
103
86
80
79
104
86
92
75
76
81
72
90
100
85
96
96
105
93
70
109
91
85
95
100
98
74
87
76
84
109
102
98
70
82
106
102
70
108
103
109
72
92
109
95
104
97
82
90
96
74
87
79
74
74
86
107
104
91
108
80
89
70
108
109
95
105
93
92
103
98
76
107
97
83
93
101
105
71
94
97
84
101
100
107
87
106
83
90
93
75
88
74
95
76
105
106
73
106
79
105
91
80
98
85
109
96
78
108
102
87
94
86
79
102
70
75
91
71
76
89
98
77
82
104
86
71
109
98
93
86
98
77
97
101
90
75
93
80
91
84
73
96
105
98
95
95
92
85
94
70
92
88
95
103
98
76
86
80
97
99
107
101
109
80
90
89
83
101
104
102
97
85
88
91
95
75
101
93
102
83
104
82
96
71
75
106
105
76
95
94
100
87
83
102
88
106
79
101
77
76
104
88
90
71
76
87
73
75
104
99
85
99
72
89
98
79
104
85
86
106
88
106
70
109
109
73
100
83
85
105
88
70
99
70
93
90
77
77
102
89
82
78
80
95
87
83
73
94
76
89
97
85
75
84
104
92
88
87
80
108
71
84
101
108
74
73
82
87
91
84
86
84
105
81
87
86
78
81
85
94
96
77
74
85
70
91
73
78
78
96
85
99
92
103
107
103
101
81
90
100
77
77
73
94
70
90
83
72
99
91
95
85
108
98
82
74
82
72
97
98
109
91
73
89
107
106
106
77
100
93
76
106
76
104
72
94
97
81
82
77
86
72
70
101
79
103
104
91
102
106
88
88
78
73
102
87
101
83
107
80
103
70
88
74
72
84
82
108
106
71
87
101
105
97
90
108
75
101
85
90
84
90
79
80
96
97
76
91
90
77
77
87
85
75
71
90
81
106
104
88
97
92
87
80
74
101
108
92
70
76
104
94
82
72
85
82
101
92
105
103
106
70
96
90
95
93
80
92
71
97
89
82
77
95
100
70
75
93
106
100
81
91
97
88
81
91
75
102
107
98
79
89
93
71
76
88
101
75
107
95
98
106
109
82
71
81
93
79
90
80
95
84
76
99
96
70
73
107
80
92
91
106
94
91
106
87
98
75
95
94
89
106
97
108
100
72
96
74
98
75
103
79
80
92
71
99
70
105
106
97
100
108
77
85
76
108
90
95
97
74
77
70
73
103
109
96
87
84
93
80
108
90
84
82
103
108
106
84
82
97
84
109
95
70
73
98
99
100
101
94
90
85
94
106
75
93
70
77
93
79
97
78
82
77
88
104
91
84
84
101
93
87
102
70
74
106
103
98
82
90
83
109
100
100
76
106
88
108
100
93
79
71
107
98
77
98
98
98
101
100
94
103
109
105
97
93
100
97
86
84
74
104
84
107
103
71
77
104
70
92
103
85
83
109
74
85
75
91
75
87
107
108
88
105
100
97
93
74
93
97
87
73
90
109
87
97
99
87
98
73
72
93
94
95
91
106
71
94
102
78
75
88
80
92
90
93
90
101
98
91
78
100
106
72
106
81
94
87
97
82
106
72
107
103
107
75
71
92
90
101
78
85
74
76
105
109
92
104
101
95
88
75
70
80
87
90
82
93
95
76
96
97
103
75
81
98
84
80
109
77
107
92
81
86
103
76
72
101
101
84
95
93
70
72
85
95
102
79
91
71
91
97
72
101
95
106
105
78
73
103
79
108
81
105
97
75
99
80
92
101
78
105
87
73
94
83
108
88
78
70
76
88
90
109
82
76
83
70
99
75
76
80
76
80
70
76
109
107
95
71
85
70
103
102
94
74
94
107
90
90
72
96
86
72
107
73
93
96
99
79
80
74
100
98
109
75
72
94
70
94
88
89
76
86
96
76
91
88
79
105
79
103
84
100
71
96
72
92
81
95
71
84
95
97
80
109
89
100
96
71
99
84
73
87
88
103
97
107
78
75
96
92
76
86
106
75
105
78
103
71
79
99
79
86
81
82
105
82
104
91
85
94
92
93
97
81
105
88
106
98
96
99
99
85
79
103
82
108
76
76
89
82
86
106
106
76
84
75
95
97
99
104
73
83
97
105
95
102
95
104
74
105
79
88
70
91
99
74
108
80
86
72
109
92
94
78
81
71
82
70
74
81
96
83
74
96
75
96
76
87
107
73
74
97
85
106
75
95
101
95
79
103
97
76
101
102
96
94
108
70
90
81
81
83
82
108
98
106
97
82
104
84
85
90
106
106
74
81
87
81
95
94
108
88
76
71
96
71
75
98
107
98
101
70
70
86
78
91
87
92
92
95
99
76
99
99
74
83
101
109
109
80
96
87
75
75
96
104
93
88
87
74
70
75
90
92
95
107
94
88
106
108
106
103
85
87
87
92
89
85
70
95
92
85
80
75
84
74
100
81
85
88
108
86
100
72
73
107
85
98
89
75
82
106
94
83
93
94
80
93
73
79
77
93
75
87
88
72
102
82
80
89
88
96
99
102
71
105
83
91
96
74
87
101
105
79
109
73
101
89
71
86
80
106
99
72
100
95
71
103
83
86
85
80
85
79
83
82
85
80
79
75
79
75
73
92
77
99
97
83
107
103
98
71
103
70
87
73
77
92
94
89
89
84
98
102
78
70
85
98
95
82
109
78
92
94
78
82
79
109
89
87
80
97
107
104
86
82
97
86
78
71
83
84
73
108
95
91
89
93
103
71
76
90
101
73
85
91
102
93
87
86
77
87
107
102
90
98
92
103
74
105
105
96
72
74
107
95
108
71
87
99
108
71
70
70
96
101
75
105
82
87
101
109
77
97
102
87
70
83
107
92
105
73
109
86
93
89
94
109
98
106
96
89
105
107
83
102
109
90
86
105
81
102
104
107
82
87
71
108
103
84
81
82
78
85
73
89
80
83
108
101
80
85
108
94
80
108
100
75
76
72
102
99
91
84
90
87
108
104
103
76
85
86
95
96
82
71
78
82
75
71
91
71
70
86
99
91
96
96
105
77
78
104
98
102
97
72
105
74
81
108
94
104
105
104
109
103
107
70
100
97
77
93
108
85
93
70
76
71
81
97
74
75
98
96
92
98
82
106
78
76
99
99
108
79
74
97
83
70
108
90
91
86
103
100
103
77
108
70
96
91
92
77
71
94
89
105
106
96
94
90
89
84
89
101
73
73
96
107
88
102
90
83
74
71
72
102
92
79
83
100
71
87
87
102
103
77
89
92
101
88
109
72
97
83
108
98
84
104
75
101
93
95
103
97
74
103
80
74
98
108
107
74
89
74
101
107
107
81
92
103
100
73
96
84
104
104
99
98
86
90
108
94
74
88
82
92
76
84
103
72
99
99
83
78
109
108
99
100
99
97
89
92
73
100
94
86
100
100
78
85
79
95
83
72
87
106
100
108
70
86
94
89
77
101
83
74
109
71
107
73
95
86
89
90
74
72
104
102
94
70
101
83
79
80
86
98
100
92
75
74
96
95
76
75
89
106
76
101
103
96
108
90
103
104
99
81
105
86
77
76
78
95
97
108
86
85
87
92
89
103
89
76
76
92
106
103
71
81
93
79
76
74
79
79
90
94
103
72
76
78
109
104
84
94
97
97
91
85
93
102
93
90
94
99
88
80
102
85
70
99
86
80
84
99
99
96
74
80
86
89
83
87
88
107
71
92
77
80
72
72
73
80
89
94
88
88
86
104
90
102
103
79
71
72
103
107
72
101
93
80
87
91
80
105
95
99
72
97
102
107
99
72
81
106
85
90
89
81
108
87
70
88
99
86
89
79
76
91
94
102
76
99
82
78
90
86
105
106
103
76
75
88
85
90
95
85
81
95
73
80
107
99
72
85
80
88
107
109
77
75
102
83
70
84
79
74
96
91
102
86
92
94
76
89
77
81
91
103
85
77
78
99
82
92
106
99
79
76
94
82
104
90
79
109
77
81
95
80
91
75
79
97
103
102
106
76
77
91
92
105
96
107
106
100
91
107
108
108
71
74
105
70
70
97
97
82
95
106
105
94
75
91
75
89
80
85
84
91
83
80
98
84
83
74
109
74
100
96
100
102
106
75
100
105
70
87
77
91
101
88
94
109
87
102
98
88
86
75
82
109
96
105
77
102
86
97
77
101
94
98
84
99
102
95
71
99
74
109
74
105
79
75
84
85
97
90
92
85
74
103
76
74
76
102
94
89
97
81
108
76
97
82
99
82
76
77
107
109
96
90
72
82
109
106
85
103
79
95
82
104
100
89
91
82
95
94
76
83
76
106
89
97
93
71
74
107
100
86
103
93
89
71
88
104
79
70
89
73
98
86
100
105
108
82
79
101
81
90
71
102
71
91
85
107
81
90
104
86
94
98
91
109
109
76
89
74
100
70
94
109
90
103
72
72
82
82
86
91
97
81
71
89
97
76
79
98
103
98
109
75
105
104
104
99
76
80
75
80
93
83
102
73
95
73
88
101
85
72
98
84
96
108
93
75
91
78
87
78
93
72
82
106
86
104
93
81
78
75
71
81
74
76
97
95
105
93
99
88
86
85
74
80
78
74
72
86
109
89
101
80
84
76
77
75
86
83
82
102
106
102
84
79
91
98
93
78
71
98
89
89
109
80
70
95
75
92
73
97
79
92
74
78
108
85
88
86
94
89
88
105
90
97
82
105
96
85
84
85
98
97
107
88
82
106
79
97
103
90
103
108
96
72
93
105
108
76
83
91
97
81
86
100
108
108
97
87
72
100
77
94
106
98
104
93
77
75
108
79
81
75
82
95
82
76
102
90
102
96
85
107
70
108
100
70
72
77
106
97
93
79
81
80
103
108
73
89
93
98
94
103
74
96
106
90
91
97
78
79
96
90
86
84
100
97
106
79
96
103
76
71
101
96
103
75
105
87
76
106
100
79
83
107
107
72
72
86
84
95
92
73
75
89
70
96
84
73
105
95
75
88
88
74
81
100
103
95
103
101
99
106
80
107
77
97
89
84
91
105
85
85
80
81
95
102
94
109
78
91
72
94
96
105
84
104
72
86
73
76
106
83
78
71
82
86
107
83
79
83
92
92
109
108
107
70
83
97
101
85
74
89
72
108
88
89
82
106
84
92
94
106
90
108
91
83
97
79
70
79
100
78
81
87
102
91
92
79
89
97
83
102
96
96
72
73
83
104
90
105
107
86
109
90
71
109
92
92
79
87
85
87
95
77
76
107
94
107
99
78
95
102
97
82
103
98
88
78
105
80
91
99
78
101
87
82
73
81
105
100
98
70
72
82
73
79
109
70
102
99
81
82
94
82
109
104
105
95
88
81
105
79
76
74
93
73
106
91
72
94
88
82
75
99
96
104
74
76
82
82
102
108
85
91
78
74
106
87
100
86
105
83
77
101
88
92
104
105
80
102
83
76
83
102
106
70
84
105
90
77
85
101
78
109
87
97
103
89
77
89
97
104
98
109
75
83
84
83
79
78
73
97
99
92
81
95
103
88
76
77
80
74
102
105
77
87
103
100
80
109
96
93
87
84
107
77
92
104
98
101
73
103
91
85
72
86
91
95
74
89
104
84
78
74
99
101
84
98
94
92
83
94
106
75
88
107
109
85
72
85
98
100
103
85
80
91
74
89
72
85
98
72
73
86
74
86
70
105
75
93
91
73
70
85
76
75
82
101
79
92
78
98
98
79
73
87
72
98
96
86
104
74
89
78
94
107
109
94
102
108
90
104
71
107
90
90
77
101
86
97
97
73
88
78
92
70
103
102
73
105
100
85
83
108
85
90
104
75
87
105
76
88
73
77
88
82
71
100
93
98
108
104
84
102
92
74
87
97
89
90
101
82
108
76
106
76
86
77
101
86
80
103
95
100
80
98
88
70
76
75
100
104
100
73
86
106
91
93
108
88
78
90
91
76
97
78
84
82
86
87
87
109
71
105
95
88
102
87
71
72
75
89
107
96
102
101
74
93
85
80
74
99
80
94
76
87
83
73
89
87
76
87
78
78
93
71
84
109
84
85
76
78
98
92
89
90
89
107
85
103
106
83
97
90
109
88
95
99
105
102
90
105
95
93
81
99
90
72
87
97
98
107
79
106
106
108
86
95
78
84
105
104
73
93
97
109
86
77
100
96
85
76
94
81
80
75
72
98
86
101
95
93
88
82
96
82
83
74
99
77
77
71
101
96
99
102
99
101
90
104
91
78
77
107
93
88
71
102
91
85
105
78
77
105
78
106
79
72
76
109
79
70
94
77
98
95
96
96
86
88
99
79
77
101
74
93
80
109
100
73
106
90
91
89
103
70
91
82
77
107
103
86
98
105
97
94
94
85
104
72
90
95
103
106
97
77
76
104
94
87
70
98
94
75
99
89
87
74
72
107
90
106
90
77
101
93
101
105
91
106
99
81
80
91
71
82
72
95
91
84
95
104
79
89
79
71
82
108
85
70
77
100
92
103
94
97
71
76
91
71
89
95
81
96
95
82
75
79
96
73
78
82
76
95
85
79
99
86
80
75
71
99
90
94
109
73
75
99
96
85
91
103
95
74
105
80
87
78
83
96
107
108
103
105
100
92
105
108
100
104
85
77
103
72
79
105
108
88
81
106
72
72
101
98
85
84
92
95
73
101
95
86
89
105
100
75
71
94
74
95
73
85
104
107
101
108
84
108
74
108
80
79
96
93
73
71
83
70
98
85
100
105
94
88
80
94
86
77
93
79
74
104
99
77
83
76
103
97
96
71
70
101
79
82
71
76
95
103
82
94
83
75
96
105
81
71
90
93
100
73
79
78
104
89
96
72
100
81
79
94
100
99
104
107
103
82
86
109
86
106
88
70
79
81
102
93
96
82
95
84
96
87
108
91
75
103
99
102
92
89
92
83
72
104
96
78
104
87
100
80
79
71
104
109
101
78
76
93
83
90
77
109
72
87
85
103
76
101
81
103
75
77
87
88
100
85
79
78
98
106
89
93
74
78
79
106
102
75
85
89
74
79
102
103
93
104
89
88
83
89
84
108
104
109
95
109
71
107
108
92
92
99
109
108
71
97
79
79
82
95
86
105
108
96
97
98
104
98
80
71
79
91
99
107
85
96
92
74
83
73
71
94
88
105
97
94
93
85
103
83
81
99
89
101
91
93
71
78
94
86
90
108
74
76
78
85
96
94
94
95
94
88
73
86
84
77
108
81
102
109
72
102
91
71
85
101
77
104
79
75
90
76
96
96
82
92
102
99
74
105
70
100
89
96
105
74
105
95
86
102
88
86
89
96
79
82
91
73
75
102
73
105
74
83
97
97
104
74
90
75
83
79
99
89
92
96
95
92
71
101
88
102
76
83
90
105
95
108
97
73
84
98
93
104
80
84
85
89
84
103
106
79
75
96
70
102
78
73
84
90
102
90
97
95
106
82
75
97
81
78
81
70
74
82
92
72
82
70
93
102
102
90
103
86
97
85
93
100
89
82
95
94
101
84
81
91
73
108
109
97
86
96
91
94
91
94
93
89
97
90
80
106
85
92
80
103
71
93
82
89
91
75
80
71
93
100
105
97
99
80
71
71
78
73
109
74
80
71
73
75
76
71
86
76
83
76
101
108
75
89
101
71
77
70
72
76
86
81
88
104
70
102
106
108
72
74
89
107
105
