pr107
107
1 8375 4700
2 8775 4700
3 8375 4900
4 8175 4900
5 8775 4900
6 8575 4900
7 8775 5400
8 8375 5450
9 8775 5600
10 8575 5600
11 8375 5650
12 8175 5650
13 8375 6200
14 8775 6200
15 8375 6400
16 8175 6400
17 8775 6400
18 8575 6400
19 8375 7000
20 8775 7000
21 8375 7200
22 8175 7200
23 8775 7200
24 8575 7200
25 8375 7800
26 8775 7800
27 8375 8000
28 8175 8000
29 8775 8000
30 8575 8000
31 8375 8700
32 8775 8700
33 8375 8900
34 8175 8900
35 8775 8900
36 8575 8900
37 8375 9600
38 8775 9600
39 8375 9800
40 8175 9800
41 8775 9800
42 8575 9800
43 8375 10500
44 8775 10450
45 8375 10700
46 8175 10700
47 8775 10650
48 8575 10650
49 8375 11300
50 8775 11300
51 8375 11500
52 8175 11500
53 8775 11500
54 8575 11500
55 15825 11500
56 15825 10700
57 15825 9800
58 15825 8900
59 15825 8000
60 15825 7200
61 15825 6400
62 15825 5650
63 15825 4900
64 16025 4700
65 16425 4700
66 16025 4900
67 16225 4900
68 16425 4900
69 16425 5400
70 16025 5450
71 16225 5600
72 16425 5600
73 16025 5650
74 16025 6200
75 16425 6200
76 16025 6400
77 16225 6400
78 16425 6400
79 16025 7000
80 16425 7000
81 16025 7200
82 16225 7200
83 16425 7200
84 16025 7800
85 16425 7800
86 16025 8000
87 16225 8000
88 16425 8000
89 16025 8700
90 16425 8700
91 16025 8900
92 16225 8900
93 16425 8900
94 16025 9600
95 16425 9600
96 16025 9800
97 16225 9800
98 16425 9800
99 16025 10500
100 16425 10450
101 16025 10700
102 16225 10650
103 16425 10650
104 16025 11300
105 16425 11300
106 16025 11500
107 16225 11500
97
94
98
107
92
109
74
83
77
78
81
91
104
84
83
86
83
107
94
92
92
99
83
103
90
82
88
74
78
97
100
83
75
84
74
99
76
104
90
83
93
105
92
81
101
73
71
99
83
72
73
91
70
80
71
84
81
80
71
76
71
92
108
90
106
74
82
98
75
80
99
95
101
93
98
81
83
93
93
103
100
81
72
102
91
102
80
90
92
76
109
101
99
98
107
86
95
81
74
99
80
70
93
98
93
91
97
92
97
72
95
99
102
70
83
86
106
77
77
91
106
87
96
84
100
76
81
101
73
71
74
92
83
72
104
82
107
100
74
73
87
106
75
87
74
104
82
106
92
77
71
76
107
71
73
81
82
105
94
95
81
77
98
102
77
72
100
103
81
86
109
105
77
75
98
82
71
85
108
99
71
94
94
96
88
86
95
86
83
80
89
77
85
100
73
72
93
101
96
98
95
107
89
108
84
100
84
109
85
102
82
89
94
97
82
100
88
75
84
81
97
107
84
78
71
74
105
107
99
79
102
91
99
90
104
97
99
83
97
95
93
108
93
99
102
108
91
75
75
93
102
90
83
97
109
99
95
104
88
70
88
77
84
97
95
98
80
89
83
89
89
73
86
101
91
73
81
96
105
99
105
94
94
90
98
106
85
84
83
87
102
74
98
81
83
101
74
101
98
99
90
103
91
98
104
83
84
92
78
94
107
92
91
85
76
97
85
101
84
72
109
102
93
78
108
98
82
94
101
74
86
104
74
83
80
99
76
84
106
76
85
92
98
95
72
106
80
86
108
108
105
72
77
84
76
107
107
80
75
109
103
81
84
95
91
87
88
84
97
90
107
96
103
99
102
108
81
85
82
105
95
70
70
83
81
91
106
105
73
91
76
105
80
90
83
97
107
105
107
76
79
92
97
89
107
76
95
106
101
94
97
84
87
76
89
82
75
90
80
103
101
107
70
84
104
109
101
70
100
91
105
99
87
98
98
95
89
94
92
98
108
101
78
76
107
108
99
76
90
89
94
78
103
104
81
75
96
74
80
77
78
83
73
91
104
84
102
81
98
72
87
99
102
82
105
92
100
71
76
90
71
104
100
85
80
83
93
72
87
73
101
86
95
83
100
89
74
81
71
79
100
92
70
86
108
101
90
82
97
109
107
92
97
70
97
93
71
98
82
107
86
75
75
99
73
74
98
80
77
100
100
98
82
89
82
99
109
95
81
78
98
95
74
81
88
78
79
93
93
86
71
91
83
86
92
81
75
96
75
102
98
82
108
74
105
71
83
105
74
78
85
89
79
91
79
74
100
101
100
70
104
88
101
105
97
99
86
91
78
85
103
75
104
84
88
94
99
78
88
72
105
83
88
91
105
90
75
78
78
76
73
87
74
70
84
76
85
75
107
103
97
97
93
96
88
106
88
95
71
78
107
106
84
79
88
107
79
77
78
70
93
99
70
97
99
106
108
85
73
92
89
85
100
100
79
109
80
100
76
108
102
87
90
92
99
80
94
98
81
83
80
105
106
106
106
100
105
106
109
100
84
72
104
70
103
102
107
105
90
82
91
102
71
81
94
97
108
80
90
71
80
91
88
96
83
98
87
103
78
96
86
72
70
93
106
82
83
87
74
92
86
85
94
77
82
84
103
70
97
94
75
75
90
71
96
107
90
105
83
99
74
91
73
82
87
85
78
104
71
103
91
96
98
107
102
80
71
97
93
86
105
89
90
85
98
102
78
89
71
73
103
95
107
99
100
81
96
71
91
104
75
71
72
83
72
86
97
71
71
70
95
87
77
75
104
70
85
72
99
106
88
80
91
108
83
79
104
85
97
107
82
108
88
109
87
101
88
100
87
75
73
92
103
81
108
99
75
94
109
100
87
95
87
104
71
74
105
73
85
96
104
81
75
74
101
91
81
87
72
95
106
100
101
76
83
102
94
97
99
100
89
84
73
88
100
95
90
96
70
80
98
104
95
105
93
98
82
71
78
80
90
70
80
97
84
92
108
83
92
109
90
105
98
88
91
93
85
71
85
102
104
76
96
101
101
98
82
109
80
91
94
106
86
81
99
83
85
70
73
98
100
103
78
76
71
94
83
76
108
71
81
93
74
78
96
88
107
87
96
106
86
101
81
74
90
103
73
90
104
88
84
99
89
103
73
78
88
71
106
96
88
95
84
93
73
108
88
81
103
85
104
82
84
79
102
82
104
74
82
101
70
92
99
94
96
109
73
70
77
91
88
87
106
79
102
101
79
95
80
71
76
109
98
85
83
96
95
74
103
97
96
92
94
73
96
97
107
89
71
93
95
82
76
73
73
103
73
102
83
103
98
83
79
95
86
98
74
72
74
89
72
108
98
80
104
79
81
103
105
75
98
74
77
109
88
79
77
95
83
79
109
93
84
84
82
75
84
82
97
78
104
88
81
91
79
81
100
78
102
86
98
92
108
102
103
74
74
89
86
103
101
97
94
103
88
99
108
98
107
92
81
92
80
71
85
70
104
102
75
86
81
95
79
90
99
105
86
82
99
102
93
103
87
92
77
103
92
71
101
98
76
89
72
81
92
109
89
94
85
72
84
95
104
73
71
87
96
74
89
102
107
71
81
87
105
79
98
107
104
105
102
109
95
81
105
101
74
106
71
73
78
86
88
97
109
92
98
73
99
98
72
101
82
108
99
71
99
75
86
93
102
72
78
97
84
99
81
81
91
104
102
80
82
81
94
76
70
98
105
82
84
80
76
78
95
108
105
72
84
95
96
99
93
93
93
88
99
71
90
83
103
76
86
76
106
81
70
96
100
73
99
88
82
93
84
99
108
71
93
80
102
92
96
79
92
72
84
73
99
86
99
100
86
97
72
91
95
109
80
93
94
81
88
93
87
97
80
75
79
94
71
81
103
81
95
72
108
104
82
99
94
88
92
84
79
92
107
79
71
77
109
108
102
91
89
80
73
106
97
70
97
73
101
81
104
103
76
94
101
70
103
72
82
84
78
92
100
96
95
94
90
98
92
99
82
87
93
105
73
99
85
100
97
95
73
98
88
77
79
81
95
97
107
95
72
91
80
82
107
107
101
74
90
84
109
108
107
84
84
104
95
74
71
85
97
73
107
83
97
76
104
89
81
82
79
80
103
109
82
80
77
101
92
105
93
90
97
85
89
106
78
85
98
72
108
73
79
70
81
107
89
100
88
86
109
89
82
107
97
81
109
100
90
95
100
109
101
109
71
80
76
107
92
80
92
108
102
96
93
79
93
92
97
76
86
104
89
85
85
72
92
71
96
72
105
73
102
77
72
109
87
83
76
76
101
89
91
79
92
106
105
83
86
93
73
101
91
95
86
102
87
95
89
80
83
99
84
90
88
89
102
73
98
88
104
88
90
104
88
80
86
87
83
91
109
86
89
102
101
99
83
85
104
80
80
76
103
76
105
75
93
81
81
81
71
78
97
109
106
101
83
88
93
87
93
103
97
71
96
104
78
77
90
74
80
108
105
98
83
101
89
83
106
109
72
86
78
77
95
99
85
88
91
103
104
83
94
78
90
72
88
82
70
99
97
84
88
73
76
107
87
101
84
91
73
101
106
72
95
108
106
107
107
90
98
100
104
89
93
105
96
73
87
101
84
86
74
100
87
80
104
78
107
108
74
75
73
73
80
94
91
101
98
101
85
89
70
71
91
83
91
79
108
74
86
72
96
79
75
74
85
82
102
108
80
90
98
90
106
81
74
105
81
87
70
104
98
103
96
105
83
71
96
97
109
83
101
76
106
76
109
93
75
101
102
100
101
79
101
104
93
102
104
72
98
99
79
85
106
106
72
74
96
79
76
94
108
101
83
97
90
103
87
85
72
83
96
103
99
75
91
102
105
102
81
100
109
87
77
75
78
92
78
105
72
73
70
103
71
78
98
102
73
103
83
75
108
98
100
77
105
78
92
108
87
74
102
85
90
108
104
99
85
107
90
95
93
79
79
107
88
71
88
92
71
91
79
103
88
92
73
85
95
89
104
97
101
99
72
98
97
98
88
100
103
97
99
76
78
104
104
91
79
81
102
74
90
85
108
88
83
88
80
80
85
106
95
102
85
79
85
75
83
89
100
79
100
93
90
79
84
100
103
95
106
106
92
105
84
76
82
87
93
94
97
109
100
90
72
91
95
72
85
73
95
106
70
108
77
71
95
80
94
107
108
78
107
76
74
73
76
72
73
99
95
77
108
77
91
82
92
79
89
92
90
108
93
83
100
74
98
87
74
96
92
77
81
73
82
70
103
89
91
105
88
101
103
71
105
87
82
88
107
74
85
77
74
75
102
70
71
105
97
93
75
87
78
98
92
103
101
95
109
81
80
79
97
108
80
83
96
92
106
102
93
109
74
90
103
87
97
105
87
75
76
105
97
108
109
74
95
89
78
81
82
90
75
82
98
105
79
81
104
76
82
90
82
96
97
107
87
88
78
102
83
93
106
107
93
80
72
101
96
79
76
99
103
92
92
106
84
76
94
98
106
86
106
102
81
90
97
104
98
109
102
100
109
90
91
99
103
90
88
91
103
104
80
93
99
86
100
104
79
84
76
108
86
107
107
97
91
108
106
104
106
102
72
107
83
88
88
89
87
83
83
84
78
92
105
103
96
81
98
74
98
82
73
72
100
82
91
107
104
101
101
94
78
76
76
74
70
95
80
101
77
83
92
73
91
108
87
89
92
100
78
97
79
109
94
78
107
84
85
76
88
70
104
79
101
71
90
83
70
88
100
96
104
81
104
80
88
80
106
99
104
80
81
86
76
86
74
87
93
96
102
107
75
95
77
92
96
94
83
109
90
107
90
80
82
101
81
91
83
95
83
109
84
109
74
87
74
92
101
73
104
71
104
98
96
95
76
109
87
74
86
104
92
95
92
95
81
81
102
104
85
82
73
88
96
82
97
86
81
96
72
78
77
96
90
97
81
78
100
106
106
74
92
92
82
109
90
83
102
82
79
89
93
80
92
74
100
88
79
89
104
74
98
100
92
92
77
70
76
109
77
83
80
95
108
73
109
92
74
102
72
75
108
92
101
90
93
84
87
70
75
106
81
105
91
85
84
107
87
82
98
108
95
89
90
97
102
104
85
109
94
70
73
106
70
99
91
80
107
87
75
92
85
80
106
101
100
71
95
100
106
93
75
98
99
98
97
95
74
103
90
103
70
101
95
71
93
101
80
105
71
81
94
108
94
90
108
80
100
92
99
96
94
87
102
72
80
80
107
89
73
95
91
83
72
90
107
99
103
82
76
93
79
100
105
108
109
74
87
71
107
107
89
102
106
73
100
86
78
73
72
96
74
81
73
73
78
109
109
101
86
82
79
70
109
86
107
76
106
103
99
93
82
100
73
71
102
105
70
98
102
71
74
92
109
83
85
88
79
78
109
87
105
85
81
89
80
73
102
101
109
89
103
79
88
87
91
106
82
73
82
87
87
105
71
100
99
95
77
72
92
92
99
94
97
83
81
105
105
108
80
103
103
96
109
80
77
92
102
72
71
95
104
107
105
70
89
97
83
99
81
99
84
106
94
109
93
76
72
107
87
70
74
89
95
108
75
86
89
107
76
81
76
77
98
79
100
104
94
91
85
81
83
87
79
77
71
81
77
88
70
82
74
97
84
75
94
94
82
73
85
100
83
84
73
98
70
82
97
102
70
89
82
72
97
100
101
102
94
93
73
71
91
76
99
92
94
103
83
100
98
107
80
103
76
97
70
77
86
77
79
104
91
107
105
87
84
107
79
101
91
79
74
73
71
81
81
103
103
83
70
87
74
73
99
108
94
105
100
88
80
95
87
102
108
90
74
80
92
99
92
74
78
95
87
71
81
107
100
90
97
71
71
87
92
78
100
92
91
92
90
90
77
105
104
96
104
102
86
82
105
101
92
78
78
102
88
103
99
87
100
93
106
84
79
85
70
79
77
77
97
98
73
75
100
90
98
94
80
78
75
77
107
73
88
71
93
84
78
99
91
103
90
96
107
89
77
79
81
87
86
72
74
105
72
99
103
99
101
89
84
107
108
89
73
78
79
94
97
88
72
73
106
99
109
100
100
103
105
103
85
108
101
78
84
84
103
90
84
108
98
87
76
84
102
86
93
85
73
84
99
107
86
99
87
83
77
71
100
94
100
108
106
102
76
78
71
105
94
88
76
84
72
97
79
106
99
108
77
85
87
88
107
100
73
87
100
102
91
90
93
93
77
109
103
94
83
87
77
105
70
93
103
76
104
104
102
76
82
83
74
103
88
105
96
92
96
71
95
76
78
70
101
109
100
84
101
100
80
75
77
91
94
82
85
107
104
82
106
100
99
84
83
82
76
73
99
82
91
74
73
102
103
73
109
109
105
96
100
71
93
73
102
79
87
101
77
82
98
80
97
95
71
93
98
103
84
71
93
95
107
88
74
76
92
101
93
102
109
89
108
88
97
72
97
71
95
71
89
80
85
91
91
79
109
87
93
86
79
107
108
99
78
105
90
77
87
96
109
72
71
79
93
86
93
90
78
80
104
89
87
102
74
82
82
108
77
99
77
70
77
84
80
85
87
77
81
82
87
76
92
106
72
90
71
82
72
86
109
93
90
73
72
92
88
108
108
77
88
79
106
96
70
84
83
77
83
108
86
82
93
104
100
76
87
106
105
84
82
100
101
92
83
81
92
105
103
75
83
107
77
77
84
91
83
106
83
109
84
94
82
94
88
100
75
87
92
103
100
83
107
108
95
85
101
79
106
78
88
78
85
86
92
84
98
80
83
103
74
91
105
75
85
93
72
71
106
83
79
97
80
95
92
94
83
81
104
109
84
90
74
93
90
100
78
91
78
70
71
105
86
95
82
107
103
88
86
99
72
103
89
104
101
73
108
75
81
80
106
106
88
70
77
72
76
104
74
92
102
86
78
97
88
98
104
94
104
71
72
79
87
108
73
108
106
89
92
97
97
81
109
94
103
73
73
95
82
88
104
86
83
95
96
87
71
99
82
77
103
105
105
91
101
97
72
78
73
102
74
73
107
93
104
97
97
76
71
74
91
109
81
97
93
74
101
75
101
107
73
70
102
87
78
95
91
71
84
108
96
97
96
99
94
91
100
107
94
102
86
73
96
78
75
93
100
71
78
86
96
90
99
107
107
104
97
76
105
78
79
104
72
97
94
104
91
76
104
84
77
88
103
108
73
108
105
98
71
93
74
102
89
71
106
106
79
101
81
72
103
101
89
88
97
87
75
86
90
88
108
92
80
98
89
75
70
70
96
72
87
85
81
85
72
107
93
77
73
85
86
84
93
108
96
102
107
107
87
95
83
94
104
91
85
107
108
95
78
77
82
79
76
70
76
73
101
109
109
90
75
97
73
105
82
85
70
73
101
100
106
106
86
94
101
105
109
84
80
94
74
104
94
95
78
81
74
76
95
102
89
75
99
104
73
85
104
85
82
72
104
107
108
78
98
89
82
94
79
84
86
98
91
73
84
105
77
93
107
77
80
109
97
95
98
75
94
105
85
71
85
93
77
95
102
93
97
71
104
82
77
100
85
89
87
109
77
107
96
107
96
108
70
99
86
78
80
74
105
86
98
105
86
79
73
104
80
102
81
95
77
86
85
107
77
101
70
102
88
102
81
83
95
104
106
104
95
88
101
108
105
91
70
107
101
86
95
72
96
89
83
90
107
72
96
106
79
100
106
84
101
91
70
108
99
107
76
91
100
93
105
82
78
95
75
70
107
90
70
85
96
70
78
88
98
90
86
89
89
88
81
94
77
96
96
95
73
108
83
101
77
93
99
107
73
84
71
90
102
91
85
79
95
77
108
72
72
90
87
87
70
80
101
101
71
103
71
99
75
83
105
109
99
88
100
88
81
97
91
70
88
97
93
71
102
86
83
90
95
82
75
108
83
100
92
72
75
78
106
89
88
80
92
92
109
94
84
73
102
70
79
82
73
92
70
109
83
89
84
79
78
73
81
82
74
108
78
96
98
87
90
88
89
76
93
97
92
71
99
109
81
99
83
96
72
100
88
72
97
94
71
95
94
94
106
94
106
79
93
77
107
81
104
105
100
109
84
77
86
107
105
108
80
71
78
77
101
74
75
89
109
109
76
89
78
75
79
107
108
71
88
70
86
100
82
99
107
92
81
96
85
91
85
95
86
77
106
100
96
92
86
103
97
102
91
78
78
103
109
71
79
92
86
92
108
104
73
79
102
97
91
97
73
109
80
94
96
106
109
107
90
91
106
91
84
106
107
109
95
106
71
82
91
76
80
102
84
101
84
101
107
101
99
80
105
83
90
96
96
79
72
90
98
80
79
76
78
103
85
79
79
108
84
85
88
88
94
77
78
75
77
100
76
86
73
78
85
75
91
102
85
92
107
74
96
74
77
83
80
87
97
83
105
109
99
104
103
88
80
72
74
90
90
77
89
102
93
99
101
87
75
71
103
89
77
99
85
80
92
71
97
72
79
106
74
77
77
98
103
92
93
104
89
98
92
79
80
107
95
94
73
77
98
84
71
79
80
84
96
76
83
105
89
100
103
92
92
84
82
100
96
93
79
108
98
99
91
83
75
71
87
80
98
79
103
109
92
108
106
78
97
109
108
73
73
74
80
72
94
91
74
93
75
97
92
85
77
93
79
81
98
89
76
73
80
84
107
81
70
90
84
80
73
82
93
86
88
89
83
87
88
104
100
70
103
106
85
83
99
73
87
95
107
81
95
80
97
100
94
88
86
79
86
75
78
77
95
81
86
75
80
80
83
76
90
94
100
86
73
77
83
77
84
96
72
94
88
77
103
87
80
76
99
77
88
103
107
85
105
97
91
87
95
108
94
88
98
70
75
71
74
92
78
106
102
82
88
106
79
97
73
101
80
98
85
74
97
75
101
98
109
71
72
77
88
82
105
74
85
78
91
92
94
103
98
73
109
102
100
84
76
92
72
86
96
109
109
96
107
87
86
108
89
107
76
85
99
99
109
92
91
109
84
84
87
87
105
105
73
107
99
108
86
109
74
98
86
99
74
102
108
92
93
91
102
92
72
87
79
95
105
93
83
91
95
97
91
83
106
73
90
98
85
82
94
85
98
73
83
92
100
84
93
74
74
95
100
98
99
75
77
77
77
100
103
105
99
82
83
84
86
91
95
106
74
94
100
91
85
91
103
97
84
98
109
104
70
97
99
86
101
89
77
109
106
83
101
95
88
95
70
82
92
102
81
92
83
105
72
88
101
104
74
105
104
80
86
71
80
87
91
104
94
74
95
97
87
81
94
85
86
72
70
108
100
82
88
96
103
105
74
84
89
73
99
86
91
102
70
94
81
106
107
79
71
100
98
102
108
70
98
81
102
77
97
99
103
78
92
93
94
87
97
86
81
92
75
93
98
92
70
86
95
91
108
92
79
88
72
79
73
82
96
86
71
94
104
94
100
108
85
83
89
76
103
102
78
99
82
89
103
74
94
71
84
80
94
71
86
71
95
106
71
85
98
98
98
100
99
70
99
75
90
91
79
86
74
78
95
108
96
95
105
80
70
96
80
107
97
87
109
103
96
95
93
87
78
86
109
109
98
82
76
99
84
101
72
79
91
107
92
89
101
90
88
78
86
97
97
82
109
92
99
82
99
95
84
96
93
97
90
82
100
99
88
85
100
80
109
109
89
104
78
81
89
96
93
93
101
92
73
79
73
79
80
70
103
74
91
72
103
75
81
108
107
72
70
95
71
109
109
90
70
82
108
75
107
105
103
75
109
70
80
89
79
88
85
101
70
71
74
71
92
70
73
81
77
98
79
90
72
92
80
101
88
84
86
89
108
102
86
74
84
90
108
72
101
78
89
94
94
71
105
86
100
80
90
90
91
105
97
94
102
100
79
77
88
108
84
74
92
87
107
80
99
78
87
91
100
98
76
81
96
81
81
83
102
81
100
96
76
100
102
100
104
85
105
76
102
106
103
86
91
91
101
87
105
98
104
76
83
75
86
93
76
94
89
95
99
98
103
90
98
108
86
98
103
72
94
81
106
80
87
85
80
91
108
70
80
71
80
82
100
98
96
108
82
93
73
107
99
98
92
103
83
104
79
82
107
77
103
84
84
83
74
71
109
78
89
92
78
85
101
109
109
78
98
93
105
95
74
85
70
74
107
81
97
73
99
74
92
91
106
101
91
77
74
92
72
77
91
99
100
99
106
94
79
104
98
104
75
99
99
71
84
98
90
71
106
94
106
92
73
75
81
76
72
86
102
92
106
79
98
82
106
89
100
91
90
80
90
94
102
107
100
72
108
73
99
81
87
96
98
103
84
92
108
73
84
86
102
87
91
85
86
97
80
73
101
93
102
85
105
101
107
76
78
80
103
72
93
79
87
103
93
106
83
71
90
85
92
99
75
102
90
103
104
104
101
96
84
76
75
96
103
70
89
88
88
102
109
86
73
105
84
90
106
103
95
100
83
70
83
104
100
103
97
84
79
79
107
105
105
105
88
80
101
105
74
71
98
76
78
108
86
103
76
90
90
85
104
90
71
101
72
99
105
99
102
85
92
94
96
90
109
98
94
78
82
103
92
72
108
73
98
106
108
97
80
70
84
76
101
105
71
75
98
109
75
83
82
73
94
101
93
75
87
105
94
81
70
70
105
76
87
93
72
79
83
71
96
79
96
92
72
82
82
94
106
101
81
85
101
73
85
76
82
93
79
108
77
106
82
104
103
91
74
80
82
107
100
105
100
100
94
109
71
77
104
80
96
100
75
99
79
92
89
84
86
104
94
109
78
81
93
91
102
108
86
106
78
104
70
104
75
102
79
87
91
73
74
79
84
89
82
100
95
91
91
99
91
107
83
82
88
101
71
97
72
71
89
100
85
99
105
82
87
84
106
75
108
87
87
101
77
101
85
95
71
77
98
98
79
103
102
93
98
102
97
80
100
86
70
108
70
95
86
97
78
87
80
95
106
79
95
81
108
79
100
102
85
108
94
90
107
107
72
101
109
70
74
74
97
70
98
99
83
97
100
75
105
79
103
108
100
80
91
90
82
72
104
80
98
109
88
105
79
88
72
74
81
106
90
78
88
98
103
73
82
100
91
90
71
83
97
75
100
98
97
106
101
96
104
93
70
90
79
97
99
93
86
92
70
93
106
108
97
87
108
95
93
94
84
108
106
76
78
74
104
78
76
104
109
102
100
93
104
99
75
73
86
107
82
107
83
84
73
76
108
96
89
75
106
71
94
99
72
105
92
99
105
108
97
84
92
82
84
104
98
103
101
72
74
74
77
103
81
90
95
70
96
91
95
71
89
72
97
70
75
91
93
108
86
83
74
102
88
86
81
70
98
103
100
72
101
105
86
96
105
101
100
98
78
72
109
90
84
97
94
93
105
89
73
71
97
100
78
94
75
87
90
103
81
75
88
104
72
97
94
102
81
93
73
72
87
104
75
107
97
105
92
72
75
100
78
83
72
86
102
92
107
80
72
99
95
82
97
96
82
97
99
81
89
108
93
80
80
83
81
76
82
81
99
70
104
76
78
103
101
106
104
81
73
103
89
91
107
100
80
72
85
98
79
90
83
79
81
98
92
80
96
108
85
104
91
73
82
104
104
93
78
96
86
83
84
76
71
101
103
74
84
96
71
99
82
103
109
97
91
79
74
72
104
75
91
79
109
89
71
97
85
108
107
95
72
83
94
104
98
90
97
76
78
104
74
109
83
81
73
71
109
101
105
98
71
81
75
102
72
76
104
102
76
84
70
87
85
74
101
107
88
107
90
89
93
72
108
88
98
81
101
100
79
78
90
71
95
94
95
76
93
75
77
104
109
85
101
106
85
70
82
100
99
86
106
90
105
73
93
107
103
77
98
94
79
80
101
71
79
90
77
105
82
78
70
102
104
71
98
77
104
73
85
76
99
109
73
86
106
81
79
86
82
79
71
77
79
101
98
105
88
101
78
78
97
109
90
81
102
106
107
83
95
97
78
90
86
95
70
78
105
81
104
91
92
94
78
90
103
99
89
85
104
95
74
91
90
73
99
104
70
86
81
81
88
88
108
95
78
83
107
82
77
98
98
71
77
105
85
85
85
92
81
108
73
88
73
79
107
96
95
76
81
108
91
98
102
92
73
82
91
91
94
89
102
106
91
85
83
82
101
109
107
95
84
78
107
81
82
107
86
100
79
109
77
98
83
84
70
79
75
84
99
102
80
99
77
99
92
91
72
72
86
83
88
99
96
74
76
80
71
79
75
99
98
106
108
97
71
79
98
80
99
101
88
100
89
106
97
99
92
81
83
107
104
102
77
90
86
97
87
94
86
82
104
79
98
76
94
106
104
92
73
103
89
100
73
85
88
83
90
84
93
96
85
99
106
95
97
75
85
74
105
100
88
84
95
71
77
98
97
99
78
75
108
76
100
82
103
97
102
97
89
77
85
104
85
72
70
86
92
78
103
86
75
89
85
94
96
90
77
93
95
70
97
91
106
71
86
102
104
96
92
98
109
77
109
96
107
98
106
82
70
107
90
77
94
84
84
80
81
82
88
76
96
74
89
93
75
96
93
89
103
106
88
78
86
102
77
96
95
89
103
83
104
82
103
94
74
87
71
89
108
86
103
88
82
78
93
80
95
79
98
106
73
79
83
78
84
95
101
74
90
78
101
74
105
76
78
82
85
73
108
74
88
70
73
73
95
76
102
93
95
100
85
98
96
104
100
106
104
88
92
83
99
71
99
79
90
71
95
96
105
89
100
106
78
74
72
94
86
83
100
92
98
88
102
80
83
75
93
105
73
97
76
70
90
93
83
