kroA100
100
1 1380 939
2 2848 96
3 3510 1671
4 457 334
5 3888 666
6 984 965
7 2721 1482
8 1286 525
9 2716 1432
10 738 1325
11 1251 1832
12 2728 1698
13 3815 169
14 3683 1533
15 1247 1945
16 123 862
17 1234 1946
18 252 1240
19 611 673
20 2576 1676
21 928 1700
22 53 857
23 1807 1711
24 274 1420
25 2574 946
26 178 24
27 2678 1825
28 1795 962
29 3384 1498
30 3520 1079
31 1256 61
32 1424 1728
33 3913 192
34 3085 1528
35 2573 1969
36 463 1670
37 3875 598
38 298 1513
39 3479 821
40 2542 236
41 3955 1743
42 1323 280
43 3447 1830
44 2936 337
45 1621 1830
46 3373 1646
47 1393 1368
48 3874 1318
49 938 955
50 3022 474
51 2482 1183
52 3854 923
53 376 825
54 2519 135
55 2945 1622
56 953 268
57 2628 1479
58 2097 981
59 890 1846
60 2139 1806
61 2421 1007
62 2290 1810
63 1115 1052
64 2588 302
65 327 265
66 241 341
67 1917 687
68 2991 792
69 2573 599
70 19 674
71 3911 1673
72 872 1559
73 2863 558
74 929 1766
75 839 620
76 3893 102
77 2178 1619
78 3822 899
79 378 1048
80 1178 100
81 2599 901
82 3416 143
83 2961 1605
84 611 1384
85 3113 885
86 2597 1830
87 2586 1286
88 161 906
89 1429 134
90 742 1025
91 1625 1651
92 1187 706
93 1787 1009
94 22 987
95 3640 43
96 3756 882
97 776 392
98 1724 1642
99 198 1810
100 3950 1558
77
90
74
89
82
102
106
101
90
94
71
92
84
105
107
87
76
73
80
77
105
106
108
107
105
107
90
89
108
75
75
97
95
78
93
77
95
72
99
81
89
73
85
71
103
105
97
74
70
109
90
109
70
83
104
108
105
83
88
107
104
87
70
78
74
93
80
89
102
89
84
81
84
80
109
90
95
107
74
99
77
72
72
87
106
80
105
109
105
108
108
74
93
97
103
109
95
78
75
91
89
83
87
77
75
76
95
87
83
78
70
74
74
106
98
76
93
80
104
102
81
109
103
86
107
88
96
86
78
73
78
85
70
91
83
109
85
77
108
109
100
83
86
95
77
106
81
108
86
75
83
71
81
95
72
87
105
101
81
97
87
103
98
94
70
108
97
89
108
74
76
108
98
105
81
98
102
96
108
96
87
74
109
80
104
97
80
86
89
79
89
71
90
72
71
86
97
92
80
97
94
75
109
75
93
90
80
92
76
109
99
86
70
77
91
105
95
108
109
105
97
79
80
70
70
84
99
93
103
75
104
77
100
81
89
76
93
107
73
83
104
105
95
87
76
75
79
82
86
96
73
98
74
84
70
96
100
105
104
83
87
74
105
77
94
76
71
86
97
78
86
73
99
107
95
84
81
101
80
99
109
76
92
95
76
79
108
75
92
82
85
72
75
81
84
73
84
92
96
81
75
75
79
108
90
84
99
100
109
74
70
101
92
72
84
90
70
95
105
89
78
77
98
92
105
79
88
82
101
96
90
70
105
105
82
86
72
83
108
78
95
83
98
94
106
78
91
106
106
86
109
80
82
75
88
79
90
109
85
78
83
80
95
83
107
89
97
109
92
105
97
108
73
88
91
95
88
75
80
78
86
97
73
82
87
99
70
73
101
98
108
79
92
101
103
81
83
83
76
99
85
93
106
85
97
104
81
97
70
106
108
104
83
82
83
70
94
109
101
91
84
79
100
99
73
79
73
88
72
70
73
79
92
88
104
81
104
107
77
90
108
89
86
87
89
97
102
91
72
107
91
75
101
99
101
84
82
77
101
81
73
82
74
105
73
74
105
88
70
75
102
108
90
96
70
91
80
93
71
75
82
90
74
107
73
95
80
72
86
95
99
82
79
80
70
73
84
82
80
105
98
109
100
86
87
96
84
92
87
103
72
101
79
101
98
97
96
75
92
97
87
95
108
101
90
88
78
103
101
88
90
103
109
76
88
79
109
81
81
74
104
95
72
81
70
106
97
87
106
70
97
102
75
91
87
88
90
89
97
91
107
86
81
71
96
86
105
73
82
106
100
101
89
84
96
87
86
81
89
107
71
80
72
95
75
107
100
93
86
76
87
85
87
82
92
82
97
83
103
83
71
83
70
101
91
70
70
95
96
83
106
71
102
107
104
91
95
104
75
91
88
88
88
101
89
92
75
104
81
84
98
77
84
102
86
90
78
70
93
74
84
96
74
98
81
84
97
76
78
74
101
81
70
86
101
91
97
101
71
105
103
73
91
87
96
96
108
109
73
108
82
86
98
103
75
108
94
70
99
73
98
96
90
105
89
70
93
95
79
100
79
102
101
105
81
97
108
92
72
92
86
87
79
76
81
81
92
92
93
79
103
99
97
98
96
106
89
95
80
74
90
98
100
85
105
100
101
83
89
72
75
89
107
96
75
93
75
109
70
100
80
79
76
96
108
81
97
84
93
81
95
106
108
79
100
72
92
84
70
93
93
100
84
74
97
79
102
87
102
100
80
83
78
71
99
89
75
101
76
79
71
93
73
104
99
82
81
109
102
94
76
95
80
105
83
97
80
75
73
107
83
94
82
73
94
71
106
78
70
94
106
75
93
107
78
77
104
108
99
94
95
93
71
90
100
103
97
92
104
100
83
106
74
98
108
79
73
86
83
79
108
106
81
72
88
98
71
104
74
92
104
97
78
79
80
100
72
77
101
93
72
75
100
91
83
72
71
91
95
92
70
93
95
92
92
71
96
107
83
104
75
99
98
72
101
100
94
79
75
92
87
75
97
72
109
93
77
105
106
70
104
107
97
102
93
74
80
102
77
78
82
71
89
88
80
82
98
93
81
89
78
83
79
93
83
106
109
90
89
93
86
80
91
73
70
100
79
85
71
86
70
82
101
108
102
84
99
79
102
106
106
100
73
91
94
93
70
90
108
105
103
99
89
90
74
94
77
109
77
108
72
72
109
71
107
71
104
103
106
103
72
82
104
70
107
76
100
98
106
87
106
82
71
92
93
74
99
91
108
99
102
71
91
74
80
102
76
95
71
88
77
98
82
78
75
105
86
77
79
84
79
90
88
77
73
72
90
74
87
87
85
109
84
96
105
102
88
87
72
70
101
104
108
96
90
93
100
92
88
86
73
75
76
98
77
74
108
94
70
96
86
92
96
82
93
93
89
82
92
81
88
75
96
70
80
89
82
96
98
70
74
72
73
95
90
80
90
105
106
78
83
86
103
95
107
76
90
86
99
80
78
93
91
95
82
83
96
109
72
102
101
105
76
91
79
81
89
100
70
74
97
97
80
107
92
74
72
90
91
84
72
103
92
106
74
88
73
78
85
108
92
88
93
100
78
78
92
103
81
109
89
109
74
71
70
70
99
101
94
100
103
94
86
70
104
89
92
71
78
88
101
94
96
78
75
87
80
90
79
98
90
100
75
98
85
95
92
105
77
87
102
90
80
70
104
71
80
82
89
100
72
88
91
84
107
95
86
82
105
102
89
90
83
104
77
90
105
74
90
99
106
73
102
100
108
97
83
81
76
92
105
104
81
72
84
108
76
84
95
109
106
99
80
80
101
90
86
107
72
79
89
84
106
99
105
106
76
105
105
92
86
95
109
81
103
77
82
96
76
84
101
96
75
81
102
74
88
89
78
78
72
79
80
108
108
84
76
93
88
102
89
80
85
100
100
80
83
89
84
86
75
88
80
100
100
79
99
98
92
86
70
84
74
89
71
75
105
84
73
107
72
96
92
101
104
91
86
70
101
76
90
88
73
95
88
103
101
77
101
70
97
105
85
83
102
94
70
81
97
101
79
77
75
85
72
83
88
83
76
97
85
77
108
92
77
106
78
106
101
85
102
88
94
105
91
109
99
86
70
70
108
76
94
75
107
72
80
90
93
109
93
83
82
109
99
100
80
88
81
86
109
108
85
87
76
94
81
105
99
80
86
91
90
76
95
70
102
95
97
99
102
89
81
91
70
100
71
95
99
99
73
73
77
109
91
83
76
90
70
86
84
85
86
70
75
106
97
108
101
91
85
76
93
70
89
73
79
97
78
101
107
80
103
77
101
102
79
76
107
90
90
102
71
92
71
72
94
89
76
71
104
107
107
94
80
76
107
76
78
92
90
86
83
105
82
72
85
103
105
105
100
73
86
88
100
70
104
106
76
87
89
78
94
87
107
90
80
92
90
94
75
70
74
74
90
102
74
84
76
89
74
84
102
77
96
76
91
82
89
106
109
92
79
104
97
89
94
94
109
94
91
70
101
79
95
81
95
78
88
80
92
84
96
109
72
102
91
106
83
81
99
90
81
73
102
95
71
95
91
92
71
81
104
108
86
86
96
83
75
74
83
84
75
71
86
90
99
101
92
106
86
75
85
72
104
102
87
74
81
97
98
107
78
78
88
96
92
84
77
96
78
82
99
79
74
90
105
76
87
82
85
84
82
103
79
94
73
106
96
89
103
88
84
82
81
84
108
83
96
104
78
88
80
101
104
75
97
87
83
107
100
92
101
80
88
85
90
91
93
102
84
84
96
99
88
91
73
100
90
75
90
75
84
75
81
83
107
95
79
99
91
71
82
75
108
103
71
79
109
79
100
89
104
83
78
100
70
77
78
86
108
97
97
77
70
106
72
85
107
91
109
89
73
81
80
105
75
71
89
106
88
98
70
92
94
102
103
80
70
72
96
97
74
77
79
77
108
75
71
99
81
71
76
71
86
87
87
107
105
105
84
81
84
83
107
87
109
85
84
97
81
100
95
93
74
88
106
99
79
96
108
76
92
92
106
77
89
99
103
76
71
70
98
82
95
92
106
73
109
96
85
79
78
105
106
100
94
96
91
73
78
79
88
105
92
104
79
100
90
107
104
106
91
84
105
109
83
85
109
98
71
103
98
82
102
87
82
99
102
95
106
100
73
82
106
81
73
92
93
100
90
73
74
85
87
101
73
75
72
76
98
91
106
107
90
80
88
102
71
101
104
91
95
87
105
103
84
109
100
104
99
100
104
75
92
70
82
71
92
76
109
98
82
108
79
74
103
92
108
102
105
95
94
86
82
95
77
88
100
109
100
109
104
93
92
75
96
77
93
100
89
79
106
95
76
92
108
70
95
76
82
95
88
76
80
71
106
87
77
76
75
96
105
97
109
94
79
104
100
81
87
91
103
93
103
99
82
100
99
85
83
97
107
90
100
82
76
94
96
85
82
83
89
71
100
70
106
72
80
106
97
83
96
92
103
101
77
79
74
84
100
105
83
106
78
85
100
97
84
82
84
97
106
77
94
105
108
98
70
82
103
97
70
98
97
103
89
88
75
97
94
75
109
96
70
95
75
82
89
98
79
109
94
92
72
74
90
94
81
71
99
101
92
93
85
95
105
100
108
109
81
107
108
97
72
108
70
74
75
95
91
77
86
102
109
102
89
106
108
80
108
100
79
73
80
86
92
90
72
91
74
77
96
75
76
79
84
108
81
89
101
78
106
89
72
109
99
70
87
101
109
109
100
89
83
101
74
92
76
106
78
92
73
103
71
107
96
101
74
80
104
100
73
77
85
71
93
82
86
85
81
83
77
109
97
70
71
74
107
87
85
87
84
95
106
77
70
74
70
82
73
71
75
84
80
70
70
70
101
86
95
83
103
76
84
73
75
90
99
79
89
71
71
106
73
100
77
92
70
71
96
79
105
83
81
96
81
104
107
103
105
103
94
94
106
88
82
89
83
79
95
93
78
101
90
107
102
91
106
94
86
76
76
107
99
107
108
74
100
83
93
98
96
102
99
89
89
104
102
108
72
92
74
107
82
71
85
89
81
92
73
83
94
96
107
87
101
104
106
79
97
87
108
94
74
99
85
74
109
74
82
74
99
74
109
98
91
102
97
93
100
88
81
74
94
99
84
99
89
96
92
73
105
100
79
100
80
95
101
74
100
88
100
109
75
71
72
98
91
83
86
78
87
109
91
76
103
109
97
70
87
92
106
72
83
106
104
99
89
88
84
88
96
88
93
74
104
84
107
90
98
84
84
93
96
93
95
73
88
70
96
88
102
76
92
76
96
97
85
99
93
104
80
109
96
108
92
100
74
73
70
90
102
99
75
74
81
70
109
80
74
102
74
82
86
80
105
75
87
97
87
102
109
101
97
72
109
90
99
73
106
71
80
84
89
71
74
76
74
82
93
89
108
85
103
108
103
73
91
88
88
106
94
74
72
73
105
98
94
108
80
73
103
108
106
85
91
87
83
100
81
96
70
94
102
84
95
109
90
93
72
105
107
108
74
95
102
83
70
82
107
73
84
101
89
81
92
88
106
85
76
73
80
103
106
76
72
89
105
94
78
102
105
103
105
88
98
78
104
98
73
81
109
89
87
77
105
79
94
75
96
72
102
76
86
105
103
86
75
109
103
70
75
74
102
97
73
76
96
102
101
80
82
79
83
108
105
80
102
77
104
102
76
80
80
76
100
85
85
73
78
81
103
94
74
75
102
103
99
89
90
81
93
92
97
83
101
98
82
71
72
74
81
106
71
109
108
106
73
99
78
96
81
83
90
86
106
88
99
99
88
88
89
76
73
86
78
93
83
99
97
89
104
96
91
103
104
87
96
77
101
83
89
73
101
85
88
77
107
72
91
75
71
72
76
73
71
86
104
95
86
103
103
71
108
102
108
92
103
94
102
102
72
85
77
100
81
109
88
84
85
101
103
87
104
80
93
104
89
92
104
86
109
102
100
104
95
76
101
89
76
82
76
85
107
105
83
82
77
109
100
90
105
78
71
104
84
74
82
97
103
88
94
101
73
80
72
93
102
106
86
96
80
76
106
97
109
95
91
99
74
92
74
80
78
83
74
109
98
101
77
75
88
107
90
106
88
93
83
94
107
88
78
78
98
106
106
83
87
80
77
70
102
90
99
109
101
76
90
72
90
96
108
102
76
99
84
101
108
70
92
98
93
94
70
102
90
85
82
82
88
90
88
100
76
95
87
106
109
73
85
102
84
85
79
83
99
105
99
95
77
97
76
90
101
100
95
102
105
86
100
95
104
94
70
92
81
83
78
86
78
74
108
105
89
107
96
90
86
94
97
72
98
88
108
93
97
74
95
86
70
83
86
89
79
109
101
95
87
70
103
90
88
96
87
73
104
74
109
82
84
96
100
79
107
89
97
76
84
104
94
103
81
102
104
97
94
93
78
93
85
104
75
86
76
97
102
77
74
106
96
92
93
73
109
101
72
102
94
70
83
70
86
97
99
109
76
70
108
88
97
101
108
73
75
81
73
94
80
86
86
108
79
87
90
71
108
81
105
93
90
92
88
77
78
75
75
98
105
82
73
108
78
79
74
81
85
108
96
87
71
84
108
94
91
108
82
84
80
84
87
88
100
94
90
83
109
78
97
76
78
90
77
83
100
76
73
96
97
86
87
101
105
102
100
81
99
90
77
71
98
101
106
78
109
99
105
98
108
89
70
107
84
96
89
92
100
108
89
78
73
88
80
86
103
76
71
109
81
90
100
87
99
93
80
79
93
107
102
96
99
85
89
94
83
108
109
71
86
78
105
108
107
97
107
108
105
96
84
75
107
76
85
78
73
100
83
75
76
79
72
87
97
81
82
95
99
93
95
107
82
75
73
104
104
74
78
94
78
71
83
81
98
79
75
91
76
81
98
106
98
95
79
77
96
70
73
93
75
108
81
90
72
90
81
108
96
107
99
91
88
76
101
73
86
83
75
102
94
85
86
92
70
74
92
92
78
84
87
80
85
89
90
75
79
76
74
94
107
107
105
109
93
92
81
81
103
106
95
103
109
79
101
73
105
73
77
83
100
106
99
96
103
91
83
102
73
105
98
72
81
91
105
91
86
106
95
83
109
73
86
94
91
88
82
81
83
108
93
74
90
89
102
102
106
106
106
100
92
80
76
89
73
82
90
85
107
108
104
78
87
91
73
91
70
79
74
92
76
74
89
81
96
104
86
80
85
71
98
99
81
98
77
80
108
73
84
91
99
74
91
81
70
94
86
95
87
109
95
90
100
107
107
104
70
80
70
87
98
74
72
92
88
78
79
87
83
87
95
109
88
85
72
78
82
106
71
96
93
105
96
76
74
80
106
87
75
80
99
92
79
98
102
95
104
101
97
93
91
93
84
83
72
109
71
108
83
80
108
79
90
76
101
104
95
97
103
86
96
81
87
77
86
80
83
85
75
102
76
90
87
82
82
85
76
73
89
75
89
80
76
85
92
102
71
96
91
109
72
109
93
91
89
83
101
76
95
76
79
98
95
70
102
71
106
83
84
98
101
107
83
97
87
72
108
102
93
106
94
109
104
92
74
85
89
87
85
77
75
70
109
104
74
73
87
92
83
101
88
95
108
76
98
108
101
98
74
77
79
88
80
72
108
92
79
71
80
104
101
75
94
97
109
105
101
107
83
96
85
100
103
105
109
86
102
104
95
89
78
106
70
72
89
103
86
83
91
83
93
93
79
103
72
71
102
85
89
84
74
76
96
70
75
96
88
74
95
86
75
79
79
78
89
92
80
106
109
82
79
86
104
80
73
81
82
102
90
83
93
85
100
71
93
101
106
99
93
102
85
77
92
91
95
89
80
91
94
72
81
106
107
91
81
80
84
88
75
80
87
76
90
76
104
90
99
79
101
98
93
75
95
78
87
84
84
74
75
101
75
82
107
89
87
103
97
85
88
101
107
108
78
79
70
82
72
84
98
86
108
95
71
106
95
73
78
108
87
97
75
82
87
87
82
89
107
101
103
103
85
71
82
98
87
85
107
80
106
86
75
72
78
71
83
89
107
93
72
106
72
87
88
90
97
95
102
89
102
107
100
86
90
103
89
98
98
93
89
108
87
88
93
71
93
93
106
98
108
98
102
70
78
84
96
85
91
108
95
104
98
97
103
98
89
92
87
108
94
80
102
88
103
89
104
106
95
102
91
107
74
106
79
96
107
71
93
107
75
92
70
104
93
73
96
107
72
103
109
96
85
102
92
91
105
89
108
97
101
77
102
70
84
82
83
80
109
89
70
92
90
79
91
80
80
80
95
97
96
72
90
94
93
86
99
100
71
98
90
75
79
72
108
97
84
93
82
102
85
89
107
80
96
102
84
88
99
97
77
76
97
70
70
78
103
96
73
109
71
81
81
106
76
95
76
86
80
73
101
98
83
72
109
80
109
81
83
104
77
105
105
76
98
90
89
96
74
78
96
109
106
89
90
85
78
91
78
100
73
78
83
93
86
94
91
98
88
103
95
72
72
75
100
98
85
99
84
109
72
93
87
84
88
104
108
92
75
92
99
107
79
109
77
77
88
74
93
103
98
96
81
88
98
85
100
84
104
74
70
107
103
96
95
106
104
102
103
104
84
97
89
75
105
102
73
75
79
76
108
104
75
78
95
96
100
71
83
100
92
78
79
83
73
85
87
103
108
108
107
79
81
99
107
76
105
72
89
96
100
109
71
99
91
94
91
80
70
82
73
80
73
96
80
102
92
92
87
83
90
74
73
74
90
89
86
70
93
84
85
82
87
109
78
82
98
99
101
105
71
94
84
74
86
88
72
99
104
86
95
94
75
71
96
97
86
100
84
81
70
105
107
107
88
107
74
108
103
99
108
97
81
90
102
81
77
85
71
89
71
75
104
88
71
92
96
101
79
108
100
77
76
96
93
98
71
96
98
96
92
102
72
98
90
95
70
100
76
79
102
74
80
98
89
97
94
96
106
84
99
104
94
83
103
72
90
78
107
100
78
80
95
109
81
74
107
92
93
85
76
80
76
93
98
99
74
106
104
84
101
72
107
72
83
73
86
90
75
105
109
70
95
75
73
72
72
99
92
74
82
91
77
85
89
89
94
88
76
81
84
71
105
79
103
94
82
104
90
86
79
98
93
94
100
97
98
78
108
83
76
80
109
102
79
81
102
96
100
95
94
87
99
90
103
91
94
71
75
73
84
75
86
97
83
101
77
106
97
104
101
76
109
103
86
86
89
98
89
97
83
96
97
85
93
101
94
107
98
102
71
82
81
90
73
70
103
83
74
78
88
77
91
109
93
71
86
91
85
88
101
100
85
92
99
73
98
95
78
94
89
104
101
109
92
74
86
97
88
103
92
77
85
86
95
85
101
71
100
77
89
108
71
105
104
98
70
77
90
80
80
78
92
80
109
97
108
108
72
90
103
82
74
103
97
90
81
78
101
104
73
76
78
102
97
88
93
83
97
96
92
97
75
98
99
92
88
85
72
95
100
81
76
91
85
84
92
90
87
95
77
73
84
72
84
101
74
74
100
87
93
98
81
74
103
90
101
108
85
83
105
92
84
86
71
107
75
93
93
94
107
72
101
75
93
90
74
89
106
93
109
109
73
98
81
107
76
86
92
73
84
90
71
82
79
90
96
82
86
96
94
85
108
89
76
93
100
96
82
108
106
82
80
70
85
74
108
90
99
70
94
91
78
98
106
90
101
91
94
71
102
86
77
96
99
106
75
72
90
108
106
83
105
73
84
81
82
97
106
90
91
106
100
105
105
83
98
84
95
90
107
75
81
72
107
86
70
107
90
76
86
76
99
89
96
91
74
95
94
87
74
81
93
106
94
108
88
109
94
79
100
96
109
93
81
84
88
72
79
85
97
96
72
82
101
100
77
78
74
104
92
108
78
104
95
103
108
91
80
104
88
84
108
91
77
85
70
108
92
77
70
94
88
92
81
76
96
108
82
108
92
91
81
72
84
102
107
79
77
103
83
84
94
90
104
101
90
93
86
79
86
86
106
103
86
73
104
76
83
74
70
84
96
80
87
100
109
107
97
107
107
96
72
73
105
90
103
101
86
83
75
92
72
75
107
89
108
71
109
105
87
78
82
77
77
88
101
94
80
81
88
92
100
77
103
79
88
99
89
98
95
79
85
77
88
91
89
82
98
102
80
90
108
71
101
105
101
91
75
95
95
78
80
72
81
94
89
87
109
86
71
70
102
74
90
73
87
78
85
84
80
92
82
73
82
78
95
95
78
72
98
95
104
90
97
97
98
85
109
71
102
75
88
88
91
108
76
72
77
77
102
109
102
92
99
85
81
82
73
103
73
80
81
95
93
94
83
70
86
71
100
81
92
73
76
96
78
84
106
106
81
96
84
71
107
92
105
94
89
84
98
73
93
75
104
109
84
105
87
78
79
71
100
99
79
97
107
102
95
90
101
71
101
94
71
89
105
76
102
76
97
76
106
93
92
104
104
83
109
100
101
75
83
98
79
87
95
98
86
106
109
96
107
71
95
80
72
74
86
94
73
95
74
97
81
91
84
103
104
72
106
95
107
108
107
75
92
107
91
93
100
92
73
83
71
106
88
78
78
92
83
71
90
80
100
83
80
75
86
81
88
107
97
81
83
73
87
104
76
81
101
105
78
100
107
102
94
104
72
87
98
70
80
81
82
109
103
107
70
77
74
70
73
86
108
91
76
82
78
105
78
72
107
71
82
98
91
103
82
106
78
107
75
96
92
76
72
71
106
73
76
81
72
93
90
80
105
108
71
71
90
87
74
88
70
86
99
79
89
94
82
94
100
75
105
106
73
96
85
86
87
100
88
71
80
87
91
105
81
93
91
88
81
74
105
105
94
79
78
81
108
92
78
93
72
95
100
84
85
108
71
91
100
77
76
96
81
91
92
105
75
102
96
93
76
89
82
82
75
98
77
105
94
105
79
88
107
86
77
71
89
88
104
76
82
75
80
106
84
98
94
104
81
70
94
94
107
93
85
109
92
70
71
72
109
108
108
85
77
81
75
89
93
77
96
83
89
103
98
79
97
107
88
102
97
109
102
75
102
109
106
90
82
108
108
92
82
86
101
94
70
88
87
107
96
107
101
95
97
105
84
109
96
79
107
107
108
93
71
101
108
74
74
95
109
107
77
95
101
94
91
106
77
97

