lin318
318
1 63 71
2 94 71
3 142 370
4 173 1276
5 205 1213
6 213 69
7 244 69
8 276 630
9 283 732
10 362 69
11 394 69
12 449 370
13 480 1276
14 512 1213
15 528 157
16 583 630
17 591 732
18 638 654
19 638 496
20 638 314
21 638 142
22 669 142
23 677 315
24 677 496
25 677 654
26 709 654
27 709 496
28 709 315
29 701 142
30 764 220
31 811 189
32 843 173
33 858 370
34 890 1276
35 921 1213
36 992 630
37 1000 732
38 1197 1276
39 1228 1213
40 1276 205
41 1299 630
42 1307 732
43 1362 654
44 1362 496
45 1362 291
46 1425 654
47 1425 496
48 1425 291
49 1417 173
50 1488 291
51 1488 496
52 1488 654
53 1551 654
54 1551 496
55 1551 291
56 1614 291
57 1614 496
58 1614 654
59 1732 189
60 1811 1276
61 1843 1213
62 1913 630
63 1921 732
64 2087 370
65 2118 1276
66 2150 1213
67 2189 205
68 2220 189
69 2220 630
70 2228 732
71 2244 142
72 2276 315
73 2276 496
74 2276 654
75 2315 654
76 2315 496
77 2315 315
78 2331 142
79 2346 315
80 2346 496
81 2346 654
82 2362 142
83 2402 157
84 2402 220
85 2480 142
86 2496 370
87 2528 1276
88 2559 1213
89 2630 630
90 2638 732
91 2756 69
92 2787 69
93 2803 370
94 2835 1276
95 2866 1213
96 2906 69
97 2937 69
98 2937 630
99 2945 732
100 3016 1276
101 3055 69
102 3087 69
103 606 220
104 1165 370
105 1780 370
106 63 1402
107 94 1402
108 142 1701
109 173 2607
110 205 2544
111 213 1400
112 244 1400
113 276 1961
114 283 2063
115 362 1400
116 394 1400
117 449 1701
118 480 2607
119 512 2544
120 528 1488
121 583 1961
122 591 2063
123 638 1985
124 638 1827
125 638 1645
126 638 1473
127 669 1473
128 677 1646
129 677 1827
130 677 1985
131 709 1985
132 709 1827
133 709 1646
134 701 1473
135 764 1551
136 811 1520
137 843 1504
138 858 1701
139 890 2607
140 921 2544
141 992 1961
142 1000 2063
143 1197 2607
144 1228 2544
145 1276 1536
146 1299 1961
147 1307 2063
148 1362 1985
149 1362 1827
150 1362 1622
151 1425 1985
152 1425 1827
153 1425 1622
154 1417 1504
155 1488 1622
156 1488 1827
157 1488 1985
158 1551 1985
159 1551 1827
160 1551 1622
161 1614 1622
162 1614 1827
163 1614 1985
164 1732 1520
165 1811 2607
166 1843 2544
167 1913 1961
168 1921 2063
169 2087 1701
170 2118 2607
171 2150 2544
172 2189 1536
173 2220 1520
174 2220 1961
175 2228 2063
176 2244 1473
177 2276 1646
178 2276 1827
179 2276 1985
180 2315 1985
181 2315 1827
182 2315 1646
183 2331 1473
184 2346 1646
185 2346 1827
186 2346 1985
187 2362 1473
188 2402 1488
189 2402 1551
190 2480 1473
191 2496 1701
192 2528 2607
193 2559 2544
194 2630 1961
195 2638 2063
196 2756 1400
197 2787 1400
198 2803 1701
199 2835 2607
200 2866 2544
201 2906 1400
202 2937 1400
203 2937 1961
204 2945 2063
205 3016 2607
206 3055 1400
207 3087 1400
208 606 1551
209 1165 1701
210 1780 1701
211 63 2733
212 94 2733
213 142 3032
214 173 3938
215 205 3875
216 213 2731
217 244 2731
218 276 3292
219 283 3394
220 362 2731
221 394 2731
222 449 3032
223 480 3938
224 512 3875
225 528 2819
226 583 3292
227 591 3394
228 638 3316
229 638 3158
230 638 2976
231 638 2804
232 669 2804
233 677 2977
234 677 3158
235 677 3316
236 709 3316
237 709 3158
238 709 2977
239 701 2804
240 764 2882
241 811 2851
242 843 2835
243 858 3032
244 890 3938
245 921 3875
246 992 3292
247 1000 3394
248 1197 3938
249 1228 3875
250 1276 2867
251 1299 3292
252 1307 3394
253 1362 3316
254 1362 3158
255 1362 2953
256 1425 3316
257 1425 3158
258 1425 2953
259 1417 2835
260 1488 2953
261 1488 3158
262 1488 3316
263 1551 3316
264 1551 3158
265 1551 2953
266 1614 2953
267 1614 3158
268 1614 3316
269 1732 2851
270 1811 3938
271 1843 3875
272 1913 3292
273 1921 3394
274 2087 3032
275 2118 3938
276 2150 3875
277 2189 2867
278 2220 2851
279 2220 3292
280 2228 3394
281 2244 2804
282 2276 2977
283 2276 3158
284 2276 3316
285 2315 3316
286 2315 3158
287 2315 2977
288 2331 2804
289 2346 2977
290 2346 3158
291 2346 3316
292 2362 2804
293 2402 2819
294 2402 2882
295 2480 2804
296 2496 3032
297 2528 3938
298 2559 3875
299 2630 3292
300 2638 3394
301 2756 2731
302 2787 2731
303 2803 3032
304 2835 3938
305 2866 3875
306 2906 2731
307 2937 2731
308 2937 3292
309 2945 3394
310 3016 3938
311 3055 2731
312 3087 2731
313 606 2882
314 1165 3032
315 1780 3032
316 1417 -79
317 1496 -79
318 1693 4055
108
92
82
106
93
106
105
106
71
95
73
73
97
96
89
104
95
82
75
89
86
93
80
90
95
103
75
101
91
108
107
93
97
101
93
107
107
86
90
106
80
109
77
104
102
80
80
78
101
109
86
106
108
80
84
91
94
89
108
100
101
84
106
93
91
93
107
102
108
91
90
93
104
100
109
98
71
89
79
97
102
92
88
72
73
103
90
74
97
87
77
107
72
89
77
85
107
76
74
106
104
79
73
99
87
84
105
88
85
85
72
81
95
109
79
84
93
99
99
80
95
75
78
106
76
109
94
86
88
90
100
88
77
76
71
83
78
93
97
82
88
83
74
109
82
106
109
79
87
99
72
85
73
84
79
89
96
96
91
104
99
72
87
72
86
97
76
71
77
80
77
88
72
84
101
103
103
91
72
94
88
95
96
73
94
74
105
88
100
72
78
74
99
101
101
90
105
102
72
101
75
92
102
73
84
94
82
109
109
70
82
108
79
104
90
99
95
70
82
70
82
95
86
94
106
81
100
86
87
84
107
86
73
97
90
103
76
75
87
95
77
77
73
80
85
85
96
77
100
71
107
108
87
100
90
98
101
109
102
83
103
106
77
97
94
80
107
88
105
99
77
95
87
88
103
105
97
86
81
101
76
109
85
98
78
104
108
71
102
79
90
74
105
89
103
80
75
80
71
77
91
85
76
100
82
101
91
104
84
76
93
108
71
105
70
104
77
90
91
93
93
82
71
84
87
79
103
105
95
81
80
94
89
89
109
85
78
94
77
77
94
77
76
74
79
98
104
102
92
98
79
108
105
75
103
86
94
94
71
109
91
108
92
74
83
103
102
107
100
74
93
72
94
92
101
102
73
104
106
107
100
80
72
99
99
100
89
75
97
78
109
92
71
88
101
83
91
88
73
102
76
106
83
89
84
94
75
81
72
100
91
97
85
93
86
92
99
84
77
98
86
109
75
70
98
93
90
79
95
83
92
86
101
109
71
79
74
77
91
108
82
77
101
86
78
88
73
101
80
92
83
106
93
101
103
107
100
76
99
95
79
104
89
98
104
83
73
91
94
88
78
101
79
83
87
83
71
74
105
87
74
98
91
108
87
70
83
98
87
76
79
83
84
103
87
84
100
76
89
85
96
71
76
93
80
78
73
72
90
106
86
90
90
105
78
80
84
78
86
85
72
109
96
74
102
105
101
82
74
73
87
85
89
99
85
75
109
79
107
92
100
104
97
109
72
70
90
94
75
71
72
98
90
79
77
70
92
70
85
77
74
89
91
91
80
99
98
73
101
77
101
72
104
84
80
98
107
99
80
101
85
80
104
89
99
91
79
77
102
92
78
101
75
100
70
102
70
80
97
77
88
105
103
109
92
103
109
103
100
79
105
87
97
90
88
76
99
72
100
104
93
101
88
89
85
99
70
104
75
72
92
104
72
74
105
81
88
88
78
109
99
90
99
106
80
100
79
82
91
95
77
79
81
96
75
83
105
101
76
87
70
85
105
74
82
88
83
76
101
103
101
76
71
93
87
79
106
102
85
98
91
70
90
82
82
102
103
89
103
98
89
84
80
103
106
75
73
91
102
72
107
101
88
84
72
79
86
102
94
80
99
77
98
95
75
88
102
101
92
100
70
75
76
86
96
108
77
98
99
100
96
92
89
73
89
108
103
80
71
95
92
83
95
99
104
82
73
91
96
80
91
92
103
71
76
71
87
94
108
73
80
82
99
103
104
75
95
77
84
81
81
81
77
70
90
108
71
77
98
97
86
84
74
89
82
102
91
77
100
108
94
78
73
77
85
82
71
83
105
79
94
73
86
85
97
82
108
95
77
98
88
99
105
91
90
106
70
97
88
82
96
87
99
74
78
70
80
85
87
74
105
90
102
88
93
91
87
85
86
78
98
105
73
97
96
108
100
89
75
95
99
76
91
86
99
92
94
76
82
87
80
96
102
70
107
70
78
83
72
81
86
103
95
104
87
98
107
103
102
84
82
88
83
107
108
97
70
94
90
87
93
74
89
91
72
99
94
84
73
77
76
78
102
99
91
89
81
88
100
93
82
108
83
108
106
89
108
88
76
70
97
72
104
92
106
93
103
72
78
105
78
104
90
90
92
98
96
108
78
73
73
93
94
96
101
108
103
84
106
92
85
102
100
86
74
86
100
109
75
70
76
94
77
94
98
95
98
75
91
87
96
78
106
71
92
106
89
95
99
94
71
100
81
92
106
89
85
96
87
99
93
93
80
98
78
109
109
92
95
104
70
92
94
95
72
108
107
96
78
70
92
77
98
89
88
72
92
89
104
74
82
88
107
101
105
101
81
86
75
74
74
71
97
82
88
75
90
98
106
92
85
72
75
106
92
97
90
76
82
71
107
84
102
91
102
94
80
79
70
81
75
96
77
89
75
90
94
100
74
92
99
84
94
93
104
100
76
87
88
87
99
90
86
85
82
77
86
71
100
105
70
101
94
86
79
78
101
98
88
104
77
87
101
96
88
93
76
93
92
72
88
96
80
107
105
94
87
76
108
105
102
98
87
92
83
85
80
78
87
109
78
80
85
77
104
90
99
81
93
75
81
102
92
96
80
73
76
71
77
74
94
76
77
82
98
84
107
108
80
80
72
80
89
100
90
85
84
73
88
104
92
79
85
104
90
95
76
108
96
72
83
87
70
96
90
98
72
78
109
99
95
77
104
93
87
100
100
104
105
76
95
74
90
89
96
102
108
93
83
76
83
81
89
105
74
77
93
97
71
98
106
90
77
109
89
99
81
103
89
92
71
76
71
96
77
105
89
72
80
97
94
74
70
81
105
90
84
98
109
87
105
87
82
82
82
80
96
74
103
71
84
84
78
105
73
97
71
94
73
103
72
108
84
77
74
105
96
81
83
104
74
101
101
71
108
98
79
70
96
91
82
82
75
77
79
90
109
109
79
106
88
75
75
79
87
85
85
89
105
103
71
80
94
82
90
88
97
90
106
95
78
93
104
81
79
73
88
105
106
101
101
107
77
74
97
95
100
75
73
81
106
107
96
103
102
86
106
107
96
75
84
106
101
80
91
100
103
71
98
108
96
71
72
98
96
86
98
71
85
102
84
73
75
109
77
72
109
106
100
80
98
108
86
96
99
101
74
98
91
87
86
92
88
70
90
87
98
102
94
78
82
94
80
72
109
94
88
98
89
100
88
71
102
85
102
89
104
91
84
109
101
90
90
105
106
95
74
105
99
83
109
83
98
76
108
104
72
92
105
84
90
87
78
87
85
87
94
101
77
82
107
99
75
71
72
83
109
100
72
74
98
76
95
103
94
79
88
95
75
98
78
87
105
72
86
82
103
73
92
84
106
107
102
77
93
94
79
74
82
108
108
80
80
97
76
106
94
103
107
70
94
93
96
99
70
89
104
70
83
107
90
93
70
92
101
107
92
88
94
93
72
72
95
108
84
90
76
108
73
108
87
101
99
87
87
96
104
89
100
100
97
70
95
73
98
80
80
76
71
76
95
109
104
78
87
94
87
96
79
77
95
79
91
91
79
103
83
94
95
80
83
75
75
81
107
80
85
100
103
74
72
106
73
98
74
80
77
85
73
74
86
100
89
79
71
97
85
101
85
76
109
79
99
93
94
100
94
98
88
106
106
99
108
82
108
92
93
78
97
99
105
104
71
99
71
101
107
72
107
98
83
99
87
93
93
72
93
88
95
87
91
81
73
96
93
109
80
107
73
102
76
78
79
75
100
96
88
72
72
70
89
77
95
91
80
83
106
78
86
99
72
86
109
89
100
105
83
82
77
102
96
106
84
95
77
106
91
76
109
80
76
99
72
86
87
84
78
87
80
77
97
79
81
89
94
99
91
86
86
82
91
94
71
106
83
102
96
101
70
102
85
109
88
81
80
102
85
70
81
107
97
77
95
108
88
86
79
94
79
86
92
76
106
75
89
92
87
83
107
85
99
80
73
104
84
95
88
92
87
72
82
86
75
88
80
97
78
70
96
75
70
75
80
80
98
85
107
98
82
102
107
89
108
96
105
104
105
76
89
96
79
92
105
89
72
109
75
94
91
104
80
72
90
83
72
102
83
84
72
76
107
70
83
89
104
71
92
77
85
89
106
99
100
72
93
107
103
75
81
83
103
70
88
103
89
71
93
71
70
80
94
96
98
92
73
86
87
85
107
80
74
102
84
76
94
93
71
100
104
107
73
97
99
102
104
72
85
87
70
98
105
96
85
88
86
80
77
70
89
90
101
96
86
106
102
75
77
90
102
85
83
85
84
87
85
82
95
81
108
82
75
103
86
109
102
75
73
74
96
108
102
86
90
77
83
71
89
88
105
89
75
77
80
96
97
93
71
96
77
92
104
98
102
79
91
87
97
106
74
81
90
85
70
104
108
104
88
99
77
84
98
72
94
76
79
94
89
92
87
72
99
72
80
77
77
81
106
86
93
76
81
103
90
75
81
105
97
104
109
79
73
94
88
72
86
106
72
85
107
75
95
84
73
70
84
108
104
77
105
89
83
81
102
82
89
109
71
73
97
109
106
75
94
103
83
105
91
96
83
102
105
106
78
106
102
77
91
95
88
92
90
90
106
81
106
75
79
83
72
88
101
95
78
71
99
101
99
75
78
109
88
105
72
98
91
92
91
77
87
77
108
109
76
71
83
101
83
106
74
86
100
86
109
103
91
75
89
106
81
70
103
82
87
86
106
74
72
72
79
71
95
72
102
72
95
73
86
84
82
103
101
101
92
106
88
92
88
70
103
86
83
89
101
93
96
85
79
74
100
95
99
81
76
78
75
85
91
72
98
78
87
81
70
73
78
86
94
87
94
73
102
71
106
85
81
96
92
85
94
106
71
80
71
109
92
80
77
101
96
107
88
76
91
89
102
104
100
104
81
71
107
92
70
87
79
90
82
107
73
87
88
75
97
93
82
83
72
102
84
95
86
108
103
109
84
104
100
100
76
97
86
108
104
95
78
70
72
72
81
100
105
75
109
100
74
92
92
98
72
96
88
84
77
73
87
105
108
92
73
92
72
96
80
78
109
74
86
82
87
87
78
77
82
81
108
70
82
70
86
90
108
77
103
91
109
91
106
105
97
101
100
97
102
103
77
78
99
84
88
93
83
102
96
94
94
97
101
104
81
99
104
107
85
71
84
108
70
82
94
92
77
93
78
82
96
84
77
83
72
86
89
71
99
95
104
85
76
106
90
98
88
91
105
102
81
108
109
103
104
78
91
106
95
90
94
87
109
88
73
109
109
80
108
102
97
104
85
108
83
94
104
100
109
101
90
98
82
109
75
77
84
86
90
100
70
85
77
81
101
91
81
93
91
98
103
108
76
106
72
106
93
83
106
103
97
99
106
95
70
74
77
93
104
108
98
73
100
86
99
95
96
109
84
98
73
108
98
104
76
108
96
96
73
89
85
98
85
99
82
102
95
90
91
103
109
86
93
97
72
85
95
73
94
86
107
76
94
101
102
107
89
72
94
101
95
74
92
101
95
94
74
102
92
95
95
108
100
101
104
101
74
98
89
87
71
109
85
108
108
79
75
84
107
84
89
73
79
77
101
73
73
92
105
71
100
95
79
99
76
72
85
83
106
76
83
82
83
75
107
88
90
72
104
91
106
74
90
108
81
89
80
85
105
92
104
89
73
83
99
108
84
105
92
85
80
100
98
105
106
72
100
75
88
73
77
80
86
104
89
87
101
87
78
81
81
104
70
77
74
99
84
104
102
70
109
91
76
90
105
109
84
76
89
82
102
74
92
100
72
78
85
73
91
87
87
78
80
78
108
98
95
70
97
94
81
89
103
100
95
78
94
108
81
95
90
95
100
106
74
102
94
102
87
83
84
105
82
98
94
103
89
81
72
94
108
102
76
96
106
72
95
96
81
96
106
104
86
89
98
82
74
70
105
94
70
108
102
108
104
104
75
91
78
97
93
105
106
80
97
91
103
79
101
103
107
97
109
88
78
105
80
107
82
101
98
96
99
108
106
82
88
101
71
82
98
74
78
96
77
101
71
92
86
90
98
93
108
70
76
88
81
101
78
83
74
74
95
98
109
107
89
105
75
107
74
99
102
84
84
83
101
84
70
81
102
80
100
88
107
71
85
109
104
96
92
90
99
101
106
100
93
106
73
74
105
105
84
79
98
80
109
74
105
70
94
92
88
73
77
89
73
76
74
106
98
103
82
90
101
95
105
96
82
72
108
77
97
80
101
79
93
77
90
100
82
98
88
99
99
94
83
80
77
109
73
70
72
108
73
90
87
87
86
109
78
101
96
90
107
86
85
89
80
76
107
99
88
104
106
87
96
70
96
76
72
83
84
80
74
78
103
97
98
85
96
98
102
89
71
104
88
77
108
109
90
107
97
109
74
104
85
79
102
97
83
86
81
94
82
89
79
101
102
104
77
74
79
80
84
85
80
96
72
93
106
77
100
108
74
75
96
91
73
77
78
96
107
79
97
108
99
73
87
106
84
71
81
109
98
103
72
89
107
106
106
101
104
71
101
103
72
93
84
80
71
87
88
73
106
77
96
103
71
88
91
76
99
77
85
70
99
95
81
107
103
102
95
109
76
76
70
74
82
74
107
95
109
102
99
87
79
80
101
70
70
78
107
91
105
84
82
77
89
95
72
77
86
76
102
109
96
108
71
103
103
100
88
89
93
106
79
71
98
90
97
106
72
82
78
104
104
82
104
75
108
81
109
70
79
83
72
94
90
79
103
77
105
73
104
85
101
107
86
83
99
89
83
73
109
85
85
97
79
72
94
95
76
83
87
95
106
101
85
78
84
85
87
77
71
74
94
75
87
89
109
98
90
71
76
86
85
103
72
81
94
78
85
82
74
70
78
102
72
72
92
88
77
85
78
70
89
103
104
100
82
91
71
101
95
74
91
78
72
96
78
85
85
92
108
82
84
73
107
70
71
93
94
89
76
72
101
72
79
103
70
103
77
90
90
106
99
83
73
99
86
80
71
103
92
74
92
82
83
102
94
76
104
92
98
83
99
95
75
83
73
108
97
92
106
86
78
75
100
73
93
92
88
94
84
70
99
87
100
79
88
107
94
90
75
92
73
93
73
103
81
88
79
100
81
75
88
103
108
104
91
102
96
89
92
75
93
107
82
84
109
83
105
90
84
95
73
95
106
72
86
99
70
86
97
80
93
101
87
93
92
96
97
96
106
99
84
71
105
92
89
89
87
109
103
89
104
91
96
91
86
83
82
74
99
78
87
96
86
89
79
103
85
91
92
104
98
73
70
82
105
84
88
86
89
77
107
89
81
103
98
73
84
102
93
99
80
95
81
108
99
72
72
102
80
89
78
102
97
91
108
108
100
88
80
99
83
84
108
89
103
106
85
97
109
81
71
103
76
105
104
99
77
89
82
90
84
107
109
90
78
82
100
77
91
82
95
79
103
73
89
91
107
108
107
90
81
109
96
94
96
76
98
79
108
84
94
99
90
79
99
91
82
93
104
100
94
105
70
75
74
100
108
101
101
70
98
102
103
73
105
80
91
81
105
86
79
73
74
73
89
72
79
91
77
84
71
74
100
85
78
79
87
93
100
96
92
87
84
91
88
102
72
76
102
103
75
89
86
81
87
99
74
99
80
72
94
71
97
103
102
79
85
107
107
85
105
76
73
95
72
74
75
82
94
84
96
94
98
104
91
75
78
83
93
74
104
107
101
103
86
75
75
102
109
95
73
107
75
97
107
102
70
75
73
71
100
86
98
79
76
82
83
71
85
79
81
92
102
84
83
76
70
85
75
82
93
106
87
80
90
78
83
93
70
78
105
85
104
107
100
73
91
105
105
102
94
96
70
74
74
82
104
84
73
79
88
83
92
70
93
99
94
101
88
83
80
98
84
90
92
83
93
84
70
83
82
103
95
86
94
75
100
95
75
73
71
103
72
98
108
81
109
108
95
100
75
89
108
81
90
80
79
85
93
88
93
97
73
90
90
80
94
95
84
89
85
82
72
86
91
87
76
108
92
83
85
108
100
94
74
81
106
79
96
91
102
78
87
83
108
72
109
96
81
86
74
105
109
79
76
84
74
88
100
103
109
81
96
85
82
98
98
75
100
93
73
91
85
77
102
96
107
96
90
108
77
89
70
87
84
73
84
105
93
87
100
89
85
85
88
70
78
101
84
86
74
76
89
86
85
86
97
106
71
74
96
85
98
103
105
74
98
95
78
76
75
107
92
100
103
96
102
73
95
80
97
108
73
99
80
108
100
80
96
79
72
71
103
75
105
73
97
108
70
89
91
86
108
109
92
86
89
72
80
76
94
90
95
99
108
99
70
92
98
75
92
96
93
77
103
77
82
101
95
91
96
104
108
103
90
75
84
72
83
71
96
88
74
91
79
93
81
83
83
88
104
87
83
101
95
71
96
101
108
101
84
104
73
99
79
87
98
79
92
82
102
109
108
85
76
76
98
104
80
83
79
70
70
101
70
86
101
106
82
73
96
81
70
83
105
106
70
86
103
97
93
99
82
104
94
82
84
92
103
108
106
83
106
95
107
84
109
90
80
72
77
106
93
95
103
76
87
94
72
99
103
72
109
77
86
90
93
89
97
75
93
107
79
92
108
99
80
92
97
91
96
72
73
96
108
105
94
91
100
78
76
88
98
84
94
102
91
74
104
80
107
90
78
108
94
77
93
82
84
102
104
79
100
82
79
107
108
86
74
79
96
90
108
91
73
101
102
87
96
81
81
96
92
96
97
78
79
94
70
92
72
105
76
103
76
87
93
106
102
95
109
73
98
99
79
109
108
92
103
80
94
78
79
73
73
93
101
98
100
88
101
72
91
77
107
107
98
94
84
94
74
83
102
81
74
104
109
94
106
96
71
80
100
81
82
99
85
90
76
96
91
106
83
87
78
83
103
106
91
71
85
104
79
82
101
103
105
73
94
93
100
97
88
81
91
74
106
93
78
109
77
71
84
101
89
81
81
74
95
86
90
75
86
77
78
93
82
75
71
70
82
84
105
87
97
73
107
90
103
105
92
97
80
97
104
95
85
86
75
106
106
85
92
89
105
72
78
90
109
92
83
80
97
81
106
99
105
97
75
88
81
93
88
99
93
108
102
106
73
78
92
76
74
96
84
73
85
72
88
100
70
91
94
102
91
93
78
93
74
105
84
109
72
98
98
109
76
89
71
93
100
80
109
79
78
79
104
100
105
100
91
72
101
96
87
105
88
96
78
99
83
89
101
104
100
88
73
70
102
88
107
89
78
109
86
107
94
89
88
73
95
109
104
88
74
83
95
95
73
97
74
87
76
81
71
81
70
102
85
86
89
89
73
101
94
77
79
88
74
88
101
88
102
91
78
107
78
100
94
98
76
98
105
88
85
72
97
104
108
86
80
70
86
84
106
105
78
104
102
71
82
106
87
98
94
70
102
73
79
90
107
106
82
73
76
87
78
79
76
70
72
94
71
101
109
80
101
102
77
94
102
71
102
80
109
101
71
86
72
91
86
95
103
85
84
71
106
106
103
102
88
82
72
103
93
76
95
102
107
106
75
102
93
81
86
90
80
100
89
98
83
80
92
89
73
77
72
92
92
83
105
85
84
84
78
89
80
81
90
102
108
104
72
74
108
91
107
72
71
76
84
76
104
80
87
89
89
106
104
96
89
74
98
84
88
109
104
100
72
70
80
104
79
85
84
80
98
103
107
89
91
87
96
106
94
100
105
94
81
74
91
90
98
78
91
90
77
108
96
71
102
82
96
92
92
91
88
105
71
101
71
95
84
92
77
93
70
83
105
74
103
103
80
76
87
87
101
88
83
89
77
99
82
86
89
73
92
97
98
76
85
100
88
96
81
91
83
92
103
93
70
75
83
105
81
92
103
109
70
86
82
76
94
96
91
89
85
89
87
103
107
91
74
92
84
85
106
101
75
97
98
99
82
106
70
70
85
91
82
73
96
76
72
86
109
86
74
107
75
98
92
86
83
100
86
85
93
70
105
97
91
74
71
100
100
95
96
88
100
81
81
98
105
106
88
79
81
109
102
109
83
77
84
101
99
89
90
71
90
74
99
96
101
80
93
80
76
106
96
70
102
85
92
80
91
87
96
101
82
101
72
86
101
89
71
84
89
88
93
83
82
75
107
80
71
91
93
95
82
75
94
105
83
73
90
75
101
101
80
74
96
85
88
78
81
80
84
76
71
105
88
97
103
87
102
75
91
83
102
98
86
81
84
71
99
107
76
84
102
82
74
109
107
86
85
77
87
104
75
108
108
70
83
79
72
87
87
104
103
103
81
96
80
77
103
107
102
100
74
98
104
95
99
102
84
96
87
108
71
90
85
92
87
101
109
95
101
75
84
104
109
89
109
106
88
103
106
82
76
84
83
86
98
108
77
102
105
75
87
74
81
70
98
77
74
72
71
96
102
74
93
74
92
87
91
94
94
71
99
102
86
90
103
103
76
80
72
108
107
102
77
72
85
100
105
86
76
109
88
91
107
94
83
94
100
106
90
95
83
109
82
70
90
72
103
93
102
77
108
105
106
99
88
108
75
100
91
79
77
77
73
79
108
101
78
93
109
106
99
98
77
72
104
90
105
84
83
104
72
97
88
99
71
96
73
80
108
93
87
80
93
79
74
92
97
104
101
86
86
71
94
89
109
90
101
91
108
79
74
81
75
77
76
108
80
94
95
76
78
88
78
74
108
85
82
90
82
103
73
105
105
72
90
99
76
97
96
80
81
89
109
87
77
89
73
76
87
85
99
70
99
93
71
108
82
101
81
106
79
74
97
102
78
78
104
88
96
94
98
105
98
82
108
107
79
108
71
97
91
109
77
88
89
84
75
79
95
72
105
83
97
96
70
86
75
89
87
81
107
73
98
95
86
97
77
75
73
88
77
109
99
109
108
98
82
101
82
90
75
78
103
77
94
83
88
72
81
105
96
77
100
89
81
97
76
96
99
73
84
83
76
103
105
78
97
90
101
71
75
85
86
103
86
105
96
89
102
76
88
86
82
92
106
95
86
103
94
77
108
77
86
78
99
80
100
89
99
90
81
91
103
96
73
106
83
102
93
107
96
83
89
79
78
102
71
76
98
105
83
81
81
93
97
89
99
71
108
83
75
73
80
73
101
108
90
97
73
76
71
97
80
76
106
70
92
92
90
86
85
104
99
107
73
75
91
107
75
100
73
95
72
80
105
105
86
88
106
82
102
100
76
106
107
72
100
105
75
93
99
85
86
107
94
109
109
87
102
86
92
80
106
108
107
94
108
107
97
100
98
70
98
93
78
72
76
77
104
89
76
82
74
83
70
99
92
77
92
95
81
104
94
97
82
97
75
107
81
79
71
97
89
101
86
95
92
89
104
101
92
70
102
98
79
102
92
71
77
85
95
101
108
82
104
98
94
103
81
71
104
100
80
94
78
94
90
91
86
94
74
104
82
103
90
93
74
80
73
87
73
91
109
104
71
84
107
104
71
86
101
83
105
91
91
83
99
99
93
104
75
87
96
84
89
77
95
99
83
79
76
83
80
88
87
73
81
102
78
85
109
86
94
102
108
84
97
97
79
74
80
70
109
107
90
99
73
81
86
109
98
100
94
76
99
99
85
87
92
96
106
80
80
71
85
89
74
79
97
71
81
100
82
93
83
92
81
92
105
81
70
98
79
94
94
81
104
70
94
82
79
89
94
97
105
72
105
107
81
107
108
109
75
89
108
86
93
80
93
88
107
101
89
75
99
71
85
90
72
79
90
106
75
106
75
97
78
82
91
76
98
82
97
107
84
73
70
72
108
88
109
78
102
79
76
70
92
77
91
72
100
103
75
104
78
99
81
103
81
101
106
92
102
82
73
98
84
107
95
84
78
76
90
86
98
94
89
85
108
89
103
106
74
86
79
99
97
92
87
83
104
89
87
92
83
84
107
105
91
80
103
80
76
92
99
80
71
73
96
72
97
75
90
96
92
92
70
108
92
109
101
70
109
70
89
99
99
88
88
73
97
81
79
86
78
95
105
77
78
89
96
85
85
91
91
107
105
72
81
81
96
101
84
71
102
83
82
73
76
77
96
88
71
99
103
102
85
71
100
84
101
86
106
102
78
88
83
106
72
75
95
92
83
77
76
86
77
74
71
102
96
77
74
89
99
81
86
86
87
98
91
94
109
79
78
83
70
84
105
77
91
86
105
77
86
101
85
84
105
73
106
75
86
78
95
73
70
98
93
80
70
97
94
81
78
86
83
98
76
77
102
85
73
95
95
82
82
85
93
71
82
105
107
96
78
105
70
82
105
101
100
92
104
84
87
71
81
81
89
85
80
76
90
73
98
94
80
101
102
109
95
106
88
81
81
83
87
94
96
107
74
107
106
80
103
74
107
80
76
89
81
83
106
81
92
105
70
77
93
70
81
84
89
82
107
107
85
70
99
109
92
84
75
76
103
102
98
77
77
74
89
78
75
85
98
99
101
109
101
90
109
91
85
100
91
81
83
85
95
104
89
93
99
94
90
96
76
102
72
75
90
87
102
72
78
90
72
76
92
86
71
79
81
78
73
91
86
86
88
80
94
90
97
104
93
88
97
87
97
86
75
85
101
79
93
71
107
90
92
106
82
91
84
82
72
70
93
106
106
90
82
76
106
82
92
76
97
90
94
88
101
88
74
75
92
80
77
90
81
101
86
94
86
85
92
75
107
108
97
89
102
83
73
89
76
91
72
74
87
108
91
100
73
83
85
92
103
76
77
98
81
108
86
88
81
82
104
108
74
95
77
79
83
75
102
95
76
106
86
105
80
103
71
83
100
88
92
74
103
82
79
71
83
86
84
72
107
100
94
76
84
95
89
94
73
90
87
77
105
73
94
75
76
99
106
77
79
101
87
99
84
75
90
81
78
83
89
77
99
99
95
90
90
100
93
100
87
102
93
100
76
79
105
102
91
70
100
82
73
77
102
72
101
78
70
72
90
100
99
72
97
109
92
87
75
79
105
98
93
73
105
84
85
84
93
84
99
74
101
89
76
101
105
105
75
83
107
83
80
72
76
73
94
76
83
75
88
79
85
104
108
107
89
101
91
89
92
75
79
86
77
84
93
71
81
94
109
74
97
75
80
95
82
72
106
88
86
93
104
77
81
109
100
74
103
103
102
101
108
83
85
107
84
73
94
98
92
70
100
100
88
81
97
98
103
109
108
87
92
95
76
71
78
91
100
96
74
81
95
88
87
70
85
95
106
81
71
78
83
83
72
96
80
82
100
72
89
72
93
75
100
95
76
95
98
80
85
101
97
109
94
83
91
83
81
100
95
100
95
76
71
91
88
87
98
105
105
105
106
88
101
100
88
86
79
77
95
85
78
103
102
89
74
77
106
97
94
106
76
73
95
83
94
103
92
95
100
77
103
102
105
86
75
88
87
108
93
103
107
98
80
88
72
102
100
70
99
73
103
79
103
73
86
91
82
103
94
90
95
109
102
86
70
98
103
105
105
81
71
87
72
78
82
95
95
75
83
78
70
83
73
85
74
93
101
93
98
106
75
104
76
82
95
89
81
100
106
102
70
77
93
109
108
75
85
77
107
98
104
78
75
103
87
76
107
107
92
72
93
90
78
95
105
100
90
79
74
76
92
80
70
87
87
71
81
71
89
97
76
97
106
109
90
84
87
98
92
107
98
76
85
109
76
81
96
91
94
73
81
89
108
109
89
72
75
79
78
107
101
83
82
73
106
108
75
75
105
105
83
103
80
90
105
100
72
94
88
78
84
86
102
108
91
80
87
96
92
108
107
87
98
83
109
106
88
106
78
100
102
89
82
102
93
96
105
103
80
100
72
95
75
71
81
85
96
102
88
79
80
71
104
99
79
106
70
108
83
95
83
87
70
72
104
95
90
81
101
77
108
109
74
92
84
75
90
100
108
81
93
85
103
71
85
79
77
103
107
95
84
75
90
108
96
88
76
75
94
82
85
80
109
96
93
102
103
90
89
105
71
80
92
105
74
84
90
106
107
82
109
90
82
79
76
75
109
96
96
98
74
85
81
102
99
70
89
101
107
108
95
99
96
75
78
85
89
86
79
77
74
108
85
70
86
98
103
99
76
97
83
107
101
89
73
96
109
86
78
88
96
74
106
100
103
91
92
87
107
94
84
72
90
84
81
84
87
100
85
101
102
106
101
72
72
94
93
86
76
96
84
81
103
99
92
74
70
79
84
104
81
99
81
107
106
74
83
105
102
78
76
105
75
107
70
87
99
101
101
104
95
92
83
102
88
103
99
86
98
103
80
71
91
102
95
94
74
103
89
80
91
95
78
103
106
100
95
81
85
93
106
77
79
75
107
96
91
95
89
87
102
108
103
94
104
77
100
96
83
82
77
88
85
103
105
71
91
70
102
70
79
71
98
87
100
100
84
95
78
106
76
95
87
101
80
75
80
82
97
82
93
75
102
104
76
71
79
96
71
88
108
102
72
73
87
100
85
80
87
99
108
88
70
108
104
106
109
71
76
101
95
92
71
91
100
97
82
86
95
108
70
75
73
72
105
109
79
101
98
77
106
99
107
105
70
95
103
75
93
106
108
92
76
86
74
81
70
75
92
100
104
97
95
109
78
94
73
83
84
74
100
85
70
73
91
94
92
104
84
97
80
108
71
97
106
104
102
109
94
86
85
106
108
88
99
104
73
70
97
97
84
74
75
80
92
107
85
71
104
87
81
91
94
101
70
84
104
97
74
103
83
89
75
94
74
96
98
100
76
81
81
81
105
71
78
84
82
106
73
90
81
100
83
90
79
92
88
83
101
107
78
80
101
101
70
75
90
99
82
79
109
87
72
106
98
87
94
75
98
85
86
81
98
86
76
77
91
106
78
80
91
92
107
87
77
75
103
70
100
95
78
99
78
87
103
77
79
99
75
85
82
86
109
75
104
94
92
84
90
103
71
74
97
109
73
85
81
89
102
105
96
77
100
104
85
91
109
89
87
107
92
88
76
91
77
80
92
77
99
79
84
99
108
74
79
94
79
72
74
79
74
99
71
85
93
76
76
97
83
70
92
94
97
86
95
102
87
89
78
72
88
79
82
70
101
103
109
86
102
83
88
71
83
84
95
79
104
73
106
106
104
77
93
70
99
70
75
101
75
77
94
82
107
99
98
87
105
97
91
71
86
107
84
103
83
85
105
75
94
102
87
70
77
108
74
73
90
97
72
72
88
93
85
82
93
107
77
96
81
96
73
87
86
74
84
105
71
85
86
88
94
92
75
109
97
77
108
80
85
102
94
81
102
87
73
87
86
88
92
95
92
101
87
103
102
71
82
99
98
100
76
87
97
82
102
102
77
72
81
99
101
77
93
86
79
85
75
106
77
105
102
85
107
79
77
79
79
90
76
86
82
99
84
96
102
72
80
75
73
108
90
90
97
86
93
89
88
71
100
107
75
78
74
73
109
103
92
70
105
76
92
97
87
89
79
107
102
86
97
106
84
97
103
92
98
74
102
96
108
75
83
106
71
96
90
101
107
107
82
78
83
100
80
78
74
86
108
96
81
85
73
108
95
95
81
83
88
104
80
76
88
91
87
94
90
94
100
95
108
101
72
93
78
98
90
75
107
107
98
102
78
84
72
96
81
87
86
85
98
73
83
84
95
95
74
104
91
88
90
80
97
85
87
92
73
86
97
97
89
79
91
102
102
107
79
88
75
104
72
75
104
107
88
106
87
109
99
105
99
87
91
72
106
81
94
99
101
89
85
72
85
82
102
96
104
83
108
82
92
98
101
77
107
97
93
84
96
71
74
103
74
82
103
95
86
107
100
89
81
106
86
96
78
85
107
84
93
107
97
87
93
94
71
106
107
88
84
99
91
108
70
98
71
89
102
77
102
75
107
80
94
82
108
80
77
103
90
74
108
91
92
71
94
91
93
100
103
98
99
103
72
93
73
84
82
76
96
81
97
71
74
86
100
96
103
74
98
88
99
98
78
100
87
74
78
97
70
73
104
109
76
96
86
81
82
75
93
92
101
108
88
105
104
84
106
100
79
84
84
80
70
75
91
109
72
104
101
80
100
82
102
84
109
102
70
104
82
97
101
72
85
102
99
80
103
82
73
102
76
71
99
88
107
94
106
70
81
72
77
105
102
87
88
100
88
88
80
106
103
84
101
81
105
103
89
93
86
72
72
95
70
75
88
87
74
99
107
104
89
76
107
91
92
79
70
87
100
95
90
80
90
85
99
109
95
95
98
71
101
70
104
86
78
95
91
94
75
90
104
106
72
98
98
71
94
84
105
77
97
99
95
89
91
75
95
86
72
109
95
94
76
75
80
83
90
77
99
99
103
106
78
76
109
106
104
100
76
100
105
92
78
76
109
93
82
80
74
108
109
90
80
98
83
80
105
87
99
83
105
80
84
93
96
103
90
86
77
82
78
72
93
86
101
98
101
93
104
106
100
101
92
71
76
108
82
101
90
73
74
90
84
77
75
89
76
81
86
93
98
73
100
96
94
74
109
100
86
80
75
82
100
75
95
105
84
75
82
90
101
90
85
98
77
104
77
79
106
109
97
94
95
74
103
92
107
73
103
75
80
94
101
96
75
86
100
99
71
71
81
79
103
72
78
98
92
75
80
95
83
104
84
106
83
84
93
75
93
97
105
79
109
104
84
84
104
76
85
84
102
81
72
75
82
109
92
84
72
102
86
88
87
108
85
105
79
88
71
103
92
108
100
104
83
93
82
85
76
87
105
107
81
104
72
71
102
80
86
86
98
79
70
76
93
96
93
91
98
108
70
94
103
74
88
70
106
101
78
109
86
86
87
81
95
109
79
83
74
90
78
97
97
88
95
89
70
76
76
79
85
82
72
89
70
74
101
105
91
73
104
82
103
82
73
94
80
70
87
95
95
74
75
93
78
80
91
72
81
89
75
79
71
98
103
80
74
92
76
72
77
96
87
85
79
90
94
90
86
85
78
75
109
80
109
74
72
88
105
89
103
70
88
97
81
90
98
74
107
72
99
92
74
74
85
86
101
78
94
84
102
89
86
94
75
92
92
103
72
71
97
84
79
91
85
86
106
108
96
105
88
71
108
93
79
71
105
76
90
71
105
86
75
91
102
82
81
103
96
78
85
109
99
104
82
97
96
70
76
95
107
83
106
104
109
91
94
72
75
105
109
75
95
70
74
90
85
93
88
72
89
109
96
106
95
103
71
95
83
80
100
92
90
89
89
91
80
85
71
92
91
83
71
84
80
93
86
86
93
96
104
96
87
93
89
95
77
95
104
101
101
78
100
106
101
75
76
80
108
109
90
84
74
91
95
106
93
83
85
80
101
75
80
102
99
94
87
99
85
97
82
84
109
70
108
105
92
96
107
80
97
73
94
87
78
89
70
100
100
88
87
95
77
101
97
82
91
87
91
95
96
76
103
91
93
89
76
105
79
90
103
75
86
74
107
77
88
101
75
82
94
83
86
75
101
80
99
100
88
90
92
81
108
98
87
98
92
87
106
99
70
103
104
79
109
80
90
94
104
94
79
84
84
109
103
92
109
98
108
101
83
93
83
92
82
89
89
81
82
80
105
94
73
96
109
70
109
98
91
99
95
85
106
99
100
94
92
75
102
76
95
84
90
97
79
109
75
99
78
97
71
83
87
91
80
85
103
87
102
90
85
75
83
82
75
70
72
78
93
103
94
70
98
73
87
78
81
94
85
70
94
89
75
105
85
105
83
70
85
75
72
102
97
86
78
101
99
85
86
109
98
96
86
71
70
93
96
91
104
94
82
75
88
90
102
82
98
80
75
90
96
80
83
87
102
77
94
102
73
97
104
75
82
103
94
89
98
79
103
74
70
85
80
97
108
99
96
102
102
88
70
83
96
72
72
109
93
87
109
109
78
97
109
87
85
99
87
90
95
95
107
105
96
91
73
90
92
84
98
109
83
98
86
71
84
83
101
104
93
92
90
97
98
101
92
98
76
85
103
107
76
101
107
81
72
73
76
108
85
109
82
95
94
77
73
71
84
88
99
79
71
77
85
99
84
101
87
92
71
107
88
100
90
74
73
90
102
71
105
72
74
79
105
75
90
89
89
107
89
103
99
75
83
88
101
107
84
98
85
77
93
79
88
77
88
86
84
108
97
91
80
102
72
73
104
98
101
79
84
106
99
96
91
85
104
104
76
89
99
107
70
76
79
72
105
109
95
95
92
78
106
79
80
86
106
83
85
84
71
78
84
70
73
76
77
107
102
74
89
77
97
105
82
99
108
95
82
101
87
79
105
106
97
98
107
95
86
102
90
81
97
102
104
101
100
106
71
93
79
96
76
78
85
83
73
80
109
99
107
109
71
93
91
102
101
109
105
98
84
105
101
89
83
87
96
72
100
106
91
109
80
73
85
85
80
73
107
76
89
84
107
109
88
105
83
75
102
86
80
96
101
76
104
107
76
90
91
71
96
85
104
81
100
78
92
106
89
83
105
87
81
107
108
101
81
84
95
97
77
72
73
70
89
104
90
72
93
102
107
73
96
89
77
98
105
101
98
85
73
90
105
88
85
86
109
109
107
101
80
95
106
88
108
71
95
75
99
80
109
92
87
80
77
97
84
96
87
80
93
102
88
77
84
89
76
72
78
92
101
77
78
71
108
104
81
82
80
88
75
99
93
107
71
74
71
106
76
75
103
71
102
108
85
108
91
104
87
70
96
107
96
82
74
87
76
71
97
102
75
84
81
81
109
83
84
88
109
70
77
75
81
96
78
105
88
72
76
86
101
74
73
74
75
102
98
72
98
77
74
84
73
105
87
73
100
92
100
98
88
76
71
79
76
78
107
107
106
96
73
91
95
107
74
89
71
105
104
98
101
107
78
92
106
70
77
101
90
79
80
104
87
93
106
81
105
86
95
83
99
84
72
103
84
89
75
96
92
105
91
77
85
104
75
78
109
108
105
75
81
99
96
81
107
87
70
79
79
97
104
80
107
85
99
73
93
77
85
86
81
72
106
72
83
108
83
74
106
89
76
76
102
88
77
87
108
101
75
82
95
104
72
76
96
74
105
99
105
78
78
76
95
77
103
84
95
80
109
103
98
79
78
79
107
103
85
72
105
92
82
89
72
83
94
101
85
91
73
107
81
92
87
82
93
81
81
105
80
75
104
71
77
86
79
86
72
95
82
93
90
78
81
86
107
80
89
84
80
105
85
98
85
104
73
96
92
83
88
71
87
85
102
80
74
93
72
87
109
96
98
94
96
98
81
95
104
89
107
73
105
91
84
72
84
81
91
86
100
107
84
102
83
86
94
75
90
100
87
92
81
91
71
82
91
96
107
85
78
101
83
76
105
97
70
100
71
79
92
108
108
82
93
94
85
87
96
79
92
83
102
107
108
95
80
83
90
73
85
72
93
101
105
77
72
107
99
96
109
75
86
105
92
86
107
78
108
95
108
70
97
83
75
100
71
84
100
103
86
108
89
72
103
104
85
91
101
98
99
90
103
108
96
94
77
82
102
103
89
87
82
102
105
83
80
97
90
99
109
87
103
97
94
101
97
94
103
71
81
85
94
83
93
90
98
75
103
83
94
89
100
94
82
88
91
75
92
88
84
99
74
75
100
105
107
86
78
71
79
90
83
93
77
99
78
70
76
72
73
91
83
84
84
108
108
76
88
75
70
83
102
100
83
90
101
91
82
108
76
92
86
73
76
72
94
97
90
102
70
84
108
105
77
80
106
89
104
74
71
100
88
104
87
86
80
94
75
79
82
79
99
108
90
95
92
72
82
95
98
93
88
97
87
77
109
84
93
94
95
106
73
77
89
96
88
82
81
101
70
93
107
103
76
79
108
99
74
101
74
83
70
88
98
101
99
96
73
73
86
106
95
107
77
103
105
106
89
87
70
72
77
70
93
84
103
94
93
84
103
109
92
86
109
73
76
81
72
89
91
71
84
109
82
78
92
89
96
72
73
70
71
103
81
73
104
85
99
80
99
75
90
106
98
96
88
71
94
109
101
80
81
86
88
72
86
75
93
75
78
88
104
85
101
74
97
103
100
91
105
94
96
80
83
108
98
81
94
98
88
72
83
94
101
86
74
74
77
74
105
85
99
91
103
87
102
104
86
79
73
94
88
70
82
107
76
73
102
88
88
99
75
92
73
106
77
94
97
91
109
107
88
88
103
89
102
89
99
83
96
97
71
70
81
106
99
107
91
107
93
71
70
89
85
103
96
100
75
71
101
76
104
77
89
91
91
90
92
77
109
97
94
101
71
75
107
105
106
74
80
97
102
108
103
92
104
90
103
109
94
82
96
92
101
105
85
71
85
101
82
82
90
91
72
76
87
84
87
76
70
70
84
84
75
80
75
101
98
101
87
75
78
108
79
75
92
103
83
98
94
100
80
96
92
73
103
109
72
83
101
98
73
72
95
75
91
107
92
91
85
96
79
73
75
104
109
106
108
87
76
94
95
85
93
71
98
74
75
88
99
86
100
83
106
71
80
86
94
108
79
102
95
106
80
100
109
101
104
87
87
105
87
83
94
73
105
72
99
104
99
102
86
102
101
104
105
85
87
78
76
101
79
87
82
92
90
102
100
106
104
93
76
93
109
103
85
88
77
107
81
105
104
70
91
75
103
71
70
97
86
89
109
100
74
109
85
86
84
78
80
80
70
73
83
74
78
84
74
105
89
78
99
78
98
96
80
92
83
75
73
74
90
73
73
90
104
88
72
80
103
77
89
103
82
85
76
73
89
106
103
86
108
83
81
95
88
101
79
83
96
105
106
89
78
86
73
95
82
73
75
106
82
73
71
103
107
88
80
90
94
71
99
109
95
81
75
99
98
108
79
102
87
91
106
102
104
87
75
106
87
86
94
76
86
108
99
80
81
74
93
85
87
93
94
95
81
73
97
92
105
93
88
70
79
80
87
104
88
76
88
85
89
98
97
101
90
86
83
97
70
84
84
89
97
83
104
84
107
98
83
96
85
80
82
83
89
80
98
97
95
109
89
86
93
82
108
86
79
85
88
91
71
109
86
88
79
90
97
100
84
100
81
104
109
78
101
100
77
84
108
95
109
75
108
94
70
104
103
95
84
91
75
78
79
77
89
80
95
97
97
70
109
71
83
100
98
94
105
99
82
83
107
75
97
101
99
101
73
75
82
88
106
72
106
74
84
101
79
98
73
72
96
107
94
84
89
100
75
89
86
70
97
77
89
77
92
91
84
83
97
75
86
73
81
74
103
87
70
76
70
86
94
95
78
84
102
98
108
95
81
70
84
102
81
91
76
85
109
102
89
71
108
73
97
81
72
83
89
92
78
74
104
75
86
95
99
102
102
97
90
79
84
85
91
107
91
92
78
90
109
101
81
75
106
76
76
97
72
83
72
107
108
80
83
91
88
71
87
84
85
98
85
90
83
78
107
93
86
80
77
102
99
72
107
85
76
92
80
89
80
104
107
90
71
93
73
84
100
87
82
101
92
92
107
89
86
90
77
99
91
88
75
95
104
95
89
78
90
106
107
97
89
76
76
90
104
97
73
71
108
88
93
88
90
87
102
84
78
104
95
86
74
75
71
102
92
91
106
101
75
77
103
81
99
102
98
82
86
85
99
108
78
73
102
78
104
76
76
90
99
104
74
79
106
73
97
91
102
107
102
108
104
101
99
105
85
71
93
108
82
96
103
75
90
91
95
95
86
82
95
93
108
91
87
91
76
98
105
101
71
88
93
89
72
83
94
104
87
102
109
78
92
98
85
107
81
100
94
83
75
105
102
107
82
72
101
93
71
103
103
94
70
97
103
78
100
94
74
87
74
75
98
97
83
75
101
94
98
102
109
74
72
82
105
101
85
95
107
92
76
87
107
100
92
86
92
81
91
94
70
78
94
78
108
77
87
92
103
98
78
72
107
107
76
100
79
83
108
73
99
71
90
75
93
88
104
71
77
106
86
83
82
85
82
88
100
106
81
100
107
96
85
107
87
71
72
95
106
76
79
77
100
71
106
73
101
90
91
109
88
91
93
86
94
75
95
88
88
88
81
108
73
104
102
78
83
86
99
91
105
82
103
91
94
108
91
107
84
98
76
87
70
75
71
86
90
106
76
78
97
70
94
82
82
105
106
97
78
96
70
81
92
75
76
107
80
102
94
105
104
103
100
85
96
105
109
76
94
96
82
107
72
93
105
88
100
92
104
93
104
109
96
88
76
96
85
94
100
109
91
106
74
106
99
72
92
70
102
103
82
94
81
102
83
109
97
70
104
98
81
80
89
77
74
89
95
73
91
83
89
80
89
86
83
99
88
87
84
98
91
87
78
108
80
87
100
102
95
74
87
81
77
93
81
71
92
106
86
102
109
99
71
73
73
109
105
98
84
106
70
109
83
108
99
105
96
79
89
88
83
70
95
90
99
73
80
92
109
109
97
94
84
85
71
86
98
88
102
103
78
90
92
102
79
95
95
87
80
101
100
74
108
106
74
100
99
102
94
84
70
106
89
99
80
73
103
71
85
109
73
98
95
102
101
86
78
103
83
92
88
105
84
70
75
92
103
73
70
107
100
79
70
95
84
107
80
103
104
78
89
87
89
106
86
70
80
94
106
84
88
81
106
108
73
90
87
102
94
95
92
80
88
108
102
86
84
95
108
72
90
106
71
91
96
80
92
91
95
84
80
103
85
102
92
101
90
95
89
95
78
87
100
70
107
77
101
95
95
87
85
75
94
106
103
99
109
84
105
99
81
96
74
103
81
107
70
76
73
100
96
88
89
97
79
92
102
96
108
72
103
90
83
104
106
79
80
78
104
86
92
97
86
92
96
76
78
87
89
73
77
107
85
96
94
85
93
98
71
102
107
99
107
98
109
72
80
97
107
109
89
78
94
106
70
94
105
103
99
91
77
109
70
74
71
79
85
90
101
105
88
95
97
104
74
101
84
74
78
80
95
87
96
75
94
72
105
103
86
79
71
103
105
79
77
99
79
93
94
73
79
96
72
74
86
93
78
100
96
70
78
91
77
108
93
102
101
82
72
104
79
92
84
75
109
96
104
92
85
91
89
107
108
71
86
81
76
100
70
87
80
101
87
92
84
84
88
95
82
81
97
102
99
102
81
87
107
70
88
93
80
104
102
78
76
95
76
82
72
108
106
85
84
102
72
97
77
96
81
102
78
75
93
76
98
102
102
91
81
100
93
72
105
93
86
98
102
103
89
70
101
78
90
96
93
89
99
75
104
79
73
75
97
90
92
96
101
91
83
70
79
71
104
91
103
80
87
73
75
71
93
93
81
104
102
102
91
94
95
74
100
82
86
85
98
78
79
108
76
94
88
89
102
97
71
80
83
76
98
89
74
79
88
94
84
93
86
88
109
78
108
93
97
87
73
78
73
77
84
102
86
94
85
100
85
81
84
109
84
78
80
83
92
96
74
75
95
98
98
86
92
88
90
78
88
96
75
100
103
97
93
95
100
107
83
95
109
71
93
98
75
80
79
103
104
73
75
74
98
73
107
80
79
93
89
83
81
77
74
88
100
82
96
78
101
109
104
90
86
76
100
73
95
97
89
85
79
83
75
76
76
81
79
93
103
84
105
93
107
108
104
81
71
78
71
109
74
101
85
108
95
71
71
105
98
97
109
101
97
77
90
73
86
82
95
103
84
93
99
92
103
103
100
97
105
71
73
90
75
106
107
94
73
88
72
73
89
72
106
94
101
71
96
105
71
101
76
100
85
88
77
104
109
85
109
94
90
84
70
86
71
76
96
72
91
79
78
82
102
87
82
90
92
89
86
108
80
89
108
101
90
70
88
104
76
95
93
73
89
70
93
73
86
108
78
90
94
93
81
76
105
86
108
87
101
76
106
73
72
94
73
82
100
70
85
102
76
92
107
90
86
100
72
99
90
105
83
100
82
73
81
87
105
91
80
86
89
103
101
73
72
109
90
106
107
96
74
88
70
100
87
97
82
78
102
108
104
75
97
70
94
108
78
98
79
104
78
86
71
106
96
92
72
85
102
103
70
93
73
103
74
104
73
102
93
100
95
107
75
107
87
103
90
109
96
95
83
100
94
97
80
86
73
106
79
78
87
95
86
84
80
90
79
102
105
96
86
103
99
89
81
96
76
80
79
84
103
100
100
88
72
101
100
74
90
75
85
89
108
83
99
101
89
99
86
81
103
89
102
102
83
86
106
98
82
73
77
89
83
98
106
98
76
75
98
86
98
78
100
76
93
91
108
105
90
104
78
102
91
71
108
90
93
74
79
89
80
82
83
77
76
104
102
93
74
83
107
107
73
108
97
106
74
94
73
79
109
107
104
103
85
82
89
82
82
101
104
94
94
74
90
103
83
104
72
70
82
93
102
88
70
101
79
96
99
94
107
71
81
90
84
107
70
108
109
70
90
70
84
88
108
75
73
103
102
104
87
87
100
81
108
101
99
81
76
104
80
97
90
82
94
77
105
82
84
76
87
78
94
87
91
104
98
75
97
94
78
98
76
71
81
102
76
74
87
96
88
105
73
80
77
70
76
102
103
101
104
81
79
107
108
94
71
77
81
91
106
75
108
84
79
102
95
85
95
96
90
81
84
75
102
83
109
70
107
76
87
75
75
92
103
92
78
84
101
87
87
83
107
79
94
95
103
109
88
78
108
78
84
102
72
79
95
74
97
103
99
86
81
92
75
93
92
81
74
72
72
86
93
98
85
88
86
82
84
83
74
97
84
85
101
77
99
84
101
92
82
83
108
85
108
105
74
100
81
75
106
84
94
91
75
106
87
72
83
79
103
88
71
70
71
91
102
103
109
99
78
107
103
73
94
89
73
89
103
80
84
96
77
102
103
101
74
105
105
70
84
84
72
109
70
76
76
91
77
75
72
82
92
77
90
81
90
81
80
76
89
91
109
75
99
103
108
92
96
88
85
99
75
106
78
97
78
84
108
82
91
75
90
75
101
75
80
76
70
79
96
99
74
107
109
105
75
103
77
81
87
103
97
70
79
73
90
92
89
94
78
74
72
85
75
70
75
77
107
73
75
105
97
93
97
89
107
92
103
94
81
75
77
102
101
95
80
89
75
78
86
82
75
74
93
82
108
97
76
106
83
72
106
88
76
98
86
93
89
99
102
108
89
82
92
84
90
86
86
89
74
104
85
72
90
74
96
106
76
102
106
76
103
106
105
92
89
90
81
94
84
87
72
104
100
103
107
90
72
76
105
99
86
81
102
80
100
107
91
93
85
92
92
81
72
94
90
77
79
102
82
70
70
71
101
75
91
97
74
72
86
104
89
77
72
90
97
97
81
100
109
107
76
92
106
90
94
92
92
107
95
93
97
99
103
99
86
93
109
96
96
102
76
91
78
104
80
98
86
84
88
93
93
91
107
85
99
79
95
93
102
109
80
80
94
94
79
75
97
102
99
84
79
92
84
108
97
100
109
73
93
73
89
78
109
103
98
87
89
103
86
72
90
92
83
70
105
87
101
88
71
102
77
94
94
74
91
91
80
72
96
87
71
104
85
80
84
93
81
83
99
76
97
93
95
104
96
79
106
93
73
81
96
76
106
101
85
71
84
88
92
86
96
93
74
88
92
91
106
93
86
103
97
108
105
109
77
81
102
107
106
74
108
86
93
89
99
106
77
84
77
92
94
100
86
82
87
107
70
85
103
105
108
93
84
72
101
102
84
95
101
75
95
84
70
72
108
94
87
100
100
89
70
78
84
83
97
70
71
95
81
72
99
96
89
85
106
104
70
99
100
89
71
86
83
108
86
70
87
72
95
75
99
70
88
102
104
91
106
82
80
101
104
75
94
73
101
102
108
84
91
105
101
80
73
76
100
106
109
80
92
82
106
71
98
99
91
93
96
91
73
101
100
101
73
87
104
101
90
88
106
99
77
106
95
101
86
78
84
86
106
71
77
75
105
97
106
79
78
74
94
109
109
79
89
94
100
74
73
100
93
83
109
95
83
93
106
93
99
99
89
95
86
82
73
106
108
88
97
75
98
93
105
95
94
105
105
98
99
86
73
86
73
72
99
102
102
74
70
107
107
99
101
95
104
89
72
72
82
108
96
95
78
94
104
90
102
74
91
95
99
91
89
74
107
86
94
97
70
98
76
94
92
102
71
108
89
93
89
77
83
86
104
83
99
94
93
102
106
90
95
86
103
95
103
98
86
85
92
96
74
108
74
93
102
101
87
79
105
76
102
97
88
93
72
71
73
93
103
91
77
97
92
71
100
77
76
92
96
78
103
82
107
80
74
97
90
72
93
96
95
81
86
108
89
73
95
99
79
97
102
72
101
104
108
98
109
90
105
105
73
80
86
105
88
71
90
74
80
85
81
86
83
89
97
77
93
75
103
70
77
76
98
87
82
79
70
78
96
103
93
97
82
83
88
99
98
104
84
80
87
94
75
83
103
86
87
109
109
98
87
73
84
85
75
102
77
76
106
101
101
109
95
99
91
79
71
81
80
91
78
82
80
98
75
85
72
79
89
92
81
102
95
92
100
108
98
70
70
81
105
77
109
84
73
97
99
109
98
107
99
89
82
106
90
105
97
85
97
92
85
74
88
87
79
95
108
82
77
87
100
85
89
79
104
82
106
73
91
109
73
104
91
97
103
102
70
100
109
91
72
86
92
103
82
78
79
81
109
70
93
88
95
104
91
83
109
105
105
76
98
101
84
82
71
107
85
87
76
106
95
95
109
108
70
82
88
98
95
76
70
73
74
99
81
99
103
88
109
96
72
98
73
71
75
95
104
88
76
77
99
84
96
80
73
71
84
76
98
100
103
78
72
89
77
94
71
101
86
88
87
104
86
99
104
98
78
104
101
103
84
71
91
80
78
87
84
93
108
109
95
82
71
96
83
88
84
90
84
94
94
81
92
72
107
102
70
70
101
77
79
104
109
103
94
104
107
109
93
80
72
93
80
71
79
106
78
70
81
95
78
87
97
76
76
96
79
84
99
84
89
102
93
75
103
83
89
108
77
95
109
72
70
84
92
72
95
91
73
81
99
84
77
71
85
97
78
88
106
93
88
83
72
106
88
81
82
108
103
74
102
104
75
99
96
74
100
79
104
77
86
99
73
83
82
70
84
87
74
105
85
105
85
108
107
83
71
105
78
106
77
92
108
95
104
83
109
70
104
99
96
86
106
75
109
82
77
77
92
80
105
90
102
88
73
109
83
71
83
75
99
85
78
82
81
83
75
71
85
97
79
84
89
95
72
90
94
98
77
75
71
106
107
84
94
82
85
104
94
87
100
88
74
84
72
106
92
101
85
104
96
99
74
99
97
96
70
103
76
99
83
104
92
86
95
101
70
78
81
77
102
75
89
79
73
89
83
78
77
93
78
93
109
92
72
87
90
89
84
82
87
101
70
109
107
76
102
71
100
93
84
90
90
82
75
73
105
106
88
101
76
83
77
102
86
83
97
72
106
105
107
108
79
96
79
105
76
108
104
106
90
79
102
105
89
94
73
108
75
80
79
72
81
87
91
99
82
98
95
71
91
105
83
107
76
99
102
76
79
101
83
108
94
100
72
81
85
77
76
74
86
98
71
78
108
80
103
77
90
103
96
90
92
90
83
106
70
103
106
102
100
104
82
95
90
92
98
75
101
96
91
106
105
98
105
103
85
87
74
75
92
75
92
100
77
81
75
102
93
76
91
80
107
70
99
99
76
86
83
78
81
71
103
109
70
86
101
99
108
84
107
102
73
102
76
90
70
73
85
73
89
90
106
81
100
109
79
78
102
99
100
82
97
106
72
106
100
88
97
99
97
95
107
85
97
72
96
70
79
105
78
74
90
88
79
74
103
101
85
90
71
107
100
79
85
80
109
105
74
86
88
78
92
80
97
88
93
72
71
71
104
80
81
89
97
80
81
81
101
88
70
102
71
86
76
78
93
98
79
75
98
104
96
92
102
102
71
103
91
79
97
78
97
103
84
87
76
80
73
96
108
92
97
107
94
100
76
70
89
96
77
79
91
104
82
78
93
91
90
99
108
93
96
105
106
86
79
75
77
73
86
103
85
74
87
96
100
76
99
72
97
82
104
85
101
92
101
91
106
101
84
75
81
74
97
107
107
93
83
93
98
99
105
76
89
90
71
77
81
80
105
91
85
104
71
77
96
70
97
107
78
93
85
95
89
70
71
81
77
76
104
94
77
78
90
73
103
108
106
90
85
70
87
79
70
74
99
80
85
92
96
87
88
82
100
96
99
80
80
85
102
82
101
77
85
105
96
70
94
104
96
96
72
71
85
92
74
95
107
77
74
95
80
70
103
78
98
92
97
106
76
94
79
104
75
106
97
101
108
89
72
101
80
70
106
83
82
75
107
104
104
77
96
102
73
88
109
87
95
70
74
74
92
92
81
87
73
94
75
106
101
84
108
101
83
100
92
81
95
107
95
77
98
94
87
107
76
70
89
70
98
91
86
97
80
72
106
84
80
79
74
88
100
70
73
70
104
99
100
106
84
100
88
86
96
106
72
100
88
103
99
107
91
93
76
95
79
81
100
106
87
88
94
79
104
80
81
81
104
106
76
95
103
95
108
98
91
89
73
74
95
107
74
86
99
75
78
99
82
95
86
104
95
102
71
71
98
105
107
109
98
81
90
78
83
83
109
99
90
105
100
77
86
82
104
87
106
70
107
103
72
98
103
85
80
107
85
87
81
81
87
108
79
81
80
79
86
88
74
87
86
92
95
93
95
93
108
109
95
85
108
105
90
107
105
106
105
102
104
104
86
72
101
76
103
97
92
84
89
94
91
95
94
90
76
82
106
107
79
74
75
96
87
98
71
98
83
103
75
104
72
74
97
95
109
94
81
97
104
99
91
78
103
83
83
105
106
107
79
93
87
92
77
103
85
106
104
109
109
84
77
79
109
85
105
109
80
82
93
106
107
94
93
79
96
107
85
99
80
89
85
74
109
83
102
75
102
88
109
78
87
96
104
109
96
89
87
83
108
96
93
75
101
91
78
90
77
102
91
103
104
84
100
106
81
89
78
83
83
102
93
108
105
77
75
98
103
93
98
95
98
88
70
76
109
99
103
102
78
109
70
94
105
84
85
85
92
93
100
71
90
106
97
88
107
73
79
92
83
90
91
99
106
89
91
86
109
77
95
99
76
96
77
95
99
81
104
76
100
86
80
80
76
77
96
80
93
93
84
109
101
72
105
87
109
76
74
95
84
91
103
105
85
71
105
82
102
90
108
70
74
109
100
93
74
87
107
102
95
89
105
93
84
71
101
90
97
73
91
82
82
107
87
81
98
82
105
95
82
104
98
83
71
106
85
70
107
72
73
106
74
84
70
98
79
95
70
75
80
72
79
84
104
102
102
106
91
89
86
71
103
99
81
108
82
109
70
92
86
103
91
75
92
72
85
94
96
71
86
101
81
89
70
95
92
84
85
84
89
99
71
81
102
99
98
72
90
93
76
70
77
70
81
73
78
91
91
89
94
97
98
77
83
91
71
98
103
101
91
96
106
105
93
86
93
88
92
95
89
100
90
84
79
83
98
92
105
70
83
105
96
107
84
77
104
79
75
85
97
88
73
85
104
83
96
108
85
73
96
82
102
72
78
71
108
71
102
85
83
89
83
72
88
86
76
101
87
70
81
89
99
95
86
99
97
89
71
109
79
80
102
87
72
106
80
93
91
98
94
91
94
100
99
85
93
73
97
75
104
85
82
93
83
80
83
99
95
98
99
97
105
83
85
89
89
106
89
97
94
91
82
94
105
102
76
81
71
86
100
105
83
103
93
105
99
100
104
108
105
104
107
94
77
107
77
109
80
95
73
88
100
84
105
102
107
88
70
99
78
107
85
102
88
83
75
70
89
107
100
94
102
97
88
70
89
104
96
101
85
91
95
108
70
107
92
84
86
99
80
99
106
81
99
99
87
96
91
75
103
108
72
82
104
78
89
81
87
73
107
72
104
76
76
100
82
73
99
96
105
84
106
81
75
72
94
102
72
71
103
88
75
97
75
95
70
71
95
77
109
80
97
95
106
107
88
88
105
94
109
88
100
70
102
70
82
104
87
89
75
72
100
86
71
96
70
109
96
108
82
76
93
75
80
96
97
72
97
105
91
73
82
102
79
104
81
89
77
73
78
84
96
99
100
108
106
82
80
108
94
108
97
85
102
91
80
77
70
74
90
70
81
84
75
97
98
81
94
106
109
74
98
86
72
71
95
98
108
103
106
85
96
96
93
81
96
104
74
102
89
91
73
88
81
77
88
82
93
74
99
106
107
84
84
79
97
102
76
72
109
71
99
103
86
88
85
79
99
73
78
73
107
81
103
85
84
77
88
87
72
107
72
72
109
87
92
87
100
94
84
87
109
73
76
107
80
92
82
95
87
96
107
96
90
109
107
103
91
100
108
74
92
92
94
108
109
83
73
87
90
80
95
70
100
87
77
103
79
76
107
105
108
91
90
107
96
87
109
86
85
106
108
99
95
85
85
79
105
96
99
70
97
100
108
78
98
71
85
86
73
72
81
94
90
91
98
80
83
87
95
96
81
94
86
73
90
77
76
104
75
93
75
100
83
89
91
94
87
98
93
77
79
95
83
85
81
72
108
97
93
100
103
95
89
106
101
92
94
85
76
79
74
92
97
74
87
81
86
102
75
79
108
94
106
90
82
103
106
106
87
94
77
96
101
74
92
108
79
84
89
86
92
85
70
91
108
87
76
98
82
102
95
80
91
88
80
81
94
98
75
104
92
85
99
81
74
106
74
93
109
106
77
109
101
81
78
75
93
107
84
77
73
95
81
99
81
91
83
92
86
96
85
83
91
88
86
96
78
78
75
100
94
109
88
93
70
99
76
107
83
102
94
98
107
72
91
105
95
87
82
82
107
89
73
100
83
78
72
109
88
70
86
83
99
77
100
85
96
99
79
93
103
97
82
97
104
89
75
106
109
93
76
85
76
75
85
81
76
88
88
71
96
74
86
80
107
98
88
108
91
90
95
103
88
75
104
81
79
107
99
102
98
77
75
107
82
88
91
98
104
93
70
72
96
99
88
77
71
93
107
99
78
95
109
74
95
93
80
84
72
77
81
93
86
93
78
77
76
80
82
105
84
109
106
102
77
88
109
72
94
102
103
98
90
107
95
70
108
86
106
80
76
95
79
86
91
95
109
107
99
97
89
84
83
104
93
90
90
98
101
98
105
83
91
89
78
84
94
75
86
94
86
86
99
106
84
74
70
98
72
109
103
109
90
76
75
95
109
100
77
87
72
98
104
102
87
79
75
101
74
105
86
85
85
78
92
92
96
106
98
79
95
98
79
107
108
97
92
73
99
92
102
106
87
106
90
94
83
78
88
107
108
95
83
108
93
103
80
88
98
99
85
77
90
91
84
100
71
75
103
70
71
97
78
72
88
104
79
107
87
100
86
80
98
70
94
106
79
99
86
75
76
80
71
76
73
88
77
71
99
90
92
95
106
76
109
107
101
85
73
102
76
98
77
91
102
79
94
71
100
80
79
95
85
88
105
100
100
97
75
84
80
77
98
91
82
86
90
90
84
105
101
78
96
88
100
100
70
95
84
76
106
95
83
99
85
90
75
78
83
78
85
83
86
70
106
106
73
92
78
93
95
76
94
108
108
109
107
92
76
97
96
96
75
72
73
72
85
95
108
73
87
87
84
101
93
75
99
101
93
105
104
92
92
101
74
102
88
91
76
105
94
100
73
99
93
106
97
100
83
79
109
77
78
75
103
89
85
93
102
75
88
92
73
88
101
101
73
87
85
72
108
102
70
95
95
78
90
71
108
73
104
90
85
99
82
91
87
80
78
83
106
76
105
100
88
81
73
85
76
76
105
93
70
72
83
75
92
104
105
93
98
95
100
95
109
98
97
95
100
96
81
87
72
89
71
90
78
93
72
91
99
86
86
82
71
73
77
80
101
105
74
109
74
93
80
72
76
74
101
79
93
108
92
95
104
97
100
78
83
94
106
103
109
94
74
95
74
96
100
70
101
81
85
79
93
91
90
91
107
76
100
82
75
105
97
76
97
92
79
80
94
83
71
99
91
108
71
107
109
102
96
92
98
97
105
75
74
73
76
89
106
71
72
106
77
89
102
86
84
82
96
88
80
101
79
85
76
78
100
79
72
82
97
83
76
104
72
104
82
72
92
106
88
107
88
101
108
106
77
101
80
76
103
77
96
107
90
87
89
94
89
108
77
108
79
108
84
103
106
79
101
87
108
109
77
73
76
108
95
87
76
96
102
105
100
72
79
93
96
103
97
99
85
71
105
108
98
109
74
93
93
89
98
94
99
92
99
80
91
71
87
109
77
73
77
74
79
81
84
99
73
77
77
78
82
91
79
75
106
102
77
90
106
84
98
109
96
109
95
72
87
102
108
94
71
94
70
102
97
80
96
70
85
91
85
70
103
71
100
96
88
73
77
86
97
96
84
77
101
97
100
89
79
80
93
74
74
80
104
85
88
85
98
109
101
72
72
83
100
82
107
107
98
76
76
98
74
87
89
85
89
72
80
108
75
102
99
79
102
79
92
103
101
79
75
72
87
75
103
85
90
109
98
93
97
81
79
109
78
79
88
94
100
105
107
104
84
88
85
103
106
91
98
77
97
104
99
104
77
101
97
109
71
104
89
77
86
78
73
71
91
82
98
87
86
70
70
70
88
94
76
81
96
99
73
78
82
94
97
76
101
70
79
98
108
91
81
75
71
75
80
89
99
70
94
72
79
85
89
76
96
104
71
94
96
88
74
74
74
98
70
92
73
109
104
93
97
94
106
88
70
82
100
74
84
75
109
97
103
103
107
84
84
70
103
100
104
74
84
106
103
91
89
97
79
76
77
100
95
88
83
99
106
74
78
106
88
91
79
75
86
100
92
78
85
95
91
85
81
89
80
77
99
107
91
90
105
97
70
73
100
74
101
92
82
106
102
98
78
100
107
101
85
92
102
72
89
76
84
97
107
101
109
99
93
88
92
71
70
85
106
100
81
101
87
108
88
91
83
105
93
88
90
104
98
87
87
100
82
109
106
103
79
93
76
101
100
100
98
97
102
104
97
107
71
102
82
74
83
101
78
79
87
77
83
82
94
84
103
74
94
106
108
87
99
83
93
73
106
85
96
102
105
74
100
96
85
104
77
78
75
80
78
93
83
100
95
109
90
108
71
96
87
106
75
73
104
93
87
74
94
75
100
97
71
99
91
75
82
90
81
104
80
91
84
90
105
84
93
105
84
95
102
96
76
103
78
102
71
84
107
101
88
72
71
95
72
74
102
74
96
99
86
105
90
88
96
102
81
95
86
84
78
85
70
106
100
103
86
93
70
88
72
92
104
82
104
90
108
96
83
87
78
84
107
80
89
77
97
81
99
75
90
80
102
86
108
76
81
75
98
70
95
96
87
102
86
99
80
73
75
93
101
97
92
85
97
86
77
99
103
76
79
89
72
109
70
89
82
88
74
91
107
89
73
101
79
92
74
73
86
92
101
73
90
81
106
78
103
90
79
81
83
70
93
97
96
105
109
71
104
77
79
103
97
103
84
96
73
84
77
92
107
92
90
92
106
102
104
70
102
84
77
89
93
79
93
83
108
102
91
80
85
100
96
86
83
80
87
103
84
72
77
70
87
72
91
77
94
88
70
79
109
100
80
98
92
96
72
103
89
91
80
76
98
107
109
89
98
106
76
75
73
88
75
70
97
89
70
70
86
95
100
71
85
107
105
83
81
80
100
92
74
89
99
107
71
109
70
80
77
71
106
75
96
99
88
91
81
77
101
85
73
76
90
87
86
72
102
101
99
96
91
91
109
103
86
100
83
103
107
75
101
94
89
97
88
73
98
86
96
78
94
75
96
78
80
95
79
107
73
96
75
94
75
76
90
77
89
73
70
99
85
106
73
80
105
107
74
90
107
87
78
84
83
95
107
86
70
102
72
109
80
107
73
92
94
103
82
83
106
80
74
96
82
101
90
91
90
98
101
79
81
70
98
93
82
99
80
90
93
70
107
85
85
72
84
106
90
92
77
90
90
98
76
78
99
99
87
81
109
94
90
102
102
74
93
99
101
93
82
84
91
77
101
83
79
77
109
78
105
90
90
97
81
86
87
94
81
109
97
90
96
71
96
74
81
85
71
109
75
78
71
84
90
92
105
79
94
107
107
82
98
106
89
97
103
102
104
71
106
91
72
85
92
84
88
104
73
77
87
84
76
86
80
88
104
107
100
90
73
106
87
85
92
101
100
96
85
72
98
105
72
77
75
98
106
86
98
90
72
83
77
71
104
77
108
106
87
82
81
84
74
106
96
96
89
80
105
72
81
78
75
77
106
106
75
105
96
109
93
79
77
87
82
70
103
91
76
106
101
104
94
91
72
82
71
90
96
86
80
97
101
86
91
90
103
100
71
107
72
105
98
104
72
104
102
105
105
79
103
102
84
70
91
89
107
76
107
99
89
70
98
73
95
104
83
72
105
89
96
79
72
82
72
100
73
80
72
81
102
74
86
104
107
109
90
101
99
94
101
83
108
87
78
90
105
102
83
88
95
74
93
101
74
104
80
91
96
101
81
85
94
108
80
95
82
90
88
71
81
89
85
83
97
82
85
75
106
102
98
80
81
71
71
86
77
82
73
77
109
80
80
78
97
93
102
92
97
88
71
80
83
77
74
90
105
95
87
93
89
82
89
107
71
96
78
96
88
81
108
83
72
105
78
98
87
93
88
102
80
86
95
95
82
81
85
105
90
86
83
95
96
72
87
70
89
76
97
70
101
93
97
84
98
71
107
75
81
75
109
85
79
75
96
93
95
71
85
94
77
78
82
105
102
73
93
75
103
84
81
85
75
70
95
97
105
108
70
105
85
81
109
89
86
96
97
88
88
109
99
99
75
81
91
100
75
76
99
89
81
80
77
79
106
84
94
72
71
78
87
75
85
77
82
75
101
77
98
82
102
100
102
88
98
109
95
102
79
83
72
72
87
88
102
83
98
102
95
75
82
102
80
73
79
72
106
98
100
98
84
75
90
76
87
83
107
91
70
74
106
84
100
81
97
76
83
90
99
77
98
74
83
76
70
107
93
97
101
87
108
95
95
73
83
76
93
102
103
75
71
109
92
80
88
107
72
92
85
106
85
74
102
75
107
88
84
97
101
90
100
88
91
99
90
70
104
86
98
73
77
109
90
73
101
87
108
87
90
103
91
70
80
74
76
72
89
106
72
76
89
89
86
87
106
79
78
105
91
96
75
74
84
88
80
109
70
73
71
91
105
86
70
75
93
88
108
80
108
97
98
84
96
87
100
92
98
76
90
91
91
107
98
75
70
77
105
105
109
93
82
105
99
81
78
83
98
107
93
108
70
94
91
103
74
84
86
77
73
87
79
83
72
95
95
76
82
100
92
102
99
101
85
81
74
88
90
77
80
98
79
83
78
73
74
103
71
88
91
76
81
107
84
105
106
92
105
83
96
109
82
75
73
79
71
81
92
98
75
89
96
86
107
93
84
74
105
83
71
75
100
73
89
71
98
70
73
73
81
82
104
72
75
88
93
100
72
75
107
73
96
72
80
79
73
83
88
96
101
76
98
100
104
74
88
106
89
72
109
80
71
104
98
108
78
70
105
100
89
86
102
83
106
105
98
101
80
99
90
101
81
96
80
92
96
81
104
109
96
90
70
87
90
94
102
99
107
76
107
70
82
83
85
89
80
100
77
71
81
88
90
87
82
74
105
75
100
93
88
96
104
81
108
79
90
74
108
107
99
106
85
108
98
89
79
75
99
98
88
87
83
103
104
95
75
87
109
89
83
71
80
83
72
95
87
104
96
86
84
77
70
81
102
108
106
96
70
81
83
73
109
75
79
90
84
109
82
73
76
70
109
78
104
109
105
99
103
81
100
90
78
89
91
80
86
95
73
73
105
90
95
100
83
92
109
80
87
97
79
87
87
105
83
98
80
80
98
77
109
92
101
101
83
94
99
87
93
93
104
90
96
95
72
104
90
98
108
97
71
82
75
97
76
75
85
83
80
106
84
78
79
87
92
95
73
94
101
86
107
102
95
77
108
80
101
95
106
108
84
78
85
97
86
96
109
77
90
74
96
84
87
101
87
107
81
72
105
103
74
78
104
73
77
106
107
85
71
80
83
108
94
78
82
71
79
83
80
100
99
86
88
102
106
106
107
104
75
97
84
98
73
102
92
95
106
80
70
70
109
84
101
88
82
105
92
89
87
90
103
83
79
104
89
79
85
70
109
70
82
105
72
79
83
95
71
97
103
71
93
83
88
74
88
105
95
96
101
74
85
102
104
105
71
70
97
105
89
80
84
76
79
80
71
93
88
104
81
92
100
103
81
91
103
98
84
103
94
106
92
89
106
70
77
77
75
74
97
98
86
96
79
83
90
71
96
78
87
97
74
91
104
97
72
87
91
108
98
98
95
87
104
85
101
74
85
88
74
100
98
91
84
71
88
99
82
84
98
72
97
98
107
101
100
76
100
71
92
89
88
73
73
80
75
79
103
98
72
98
108
106
90
92
97
91
86
100
96
82
103
76
101
92
82
97
71
80
91
91
105
80
95
86
84
84
76
95
80
79
94
99
91
70
75
101
88
79
89
86
75
70
70
98
108
70
88
80
98
86
71
98
75
89
88
71
105
83
99
85
103
89
71
82
108
96
84
109
95
72
81
97
92
74
95
98
109
88
94
98
85
101
87
94
81
101
73
85
88
93
96
97
101
86
91
89
90
70
84
77
86
96
94
76
98
77
106
75
97
75
98
71
79
77
90
101
100
91
92
95
96
83
83
82
89
80
74
78
74
90
101
78
103
78
96
88
70
80
71
79
96
86
86
87
73
86
82
88
99
107
79
79
90
76
108
97
84
86
76
74
87
91
78
102
71
91
71
101
80
90
78
92
105
81
89
97
82
89
102
79
79
94
108
91
93
97
75
70
101
80
97
109
103
98
103
101
96
93
91
83
95
83
71
75
93
93
82
70
99
70
78
74
104
75
82
93
82
72
88
105
77
79
97
87
98
70
72
109
98
94
101
97
92
75
91
107
91
105
91
86
75
75
74
88
77
74
105
99
89
92
108
98
83
106
101
87
106
87
73
76
77
94
107
73
94
107
104
102
75
77
75
97
99
74
90
82
95
83
89
85
81
82
93
96
72
106
99
86
100
93
90
107
96
99
87
97
102
106
95
90
95
89
106
103
106
74
70
80
101
79
106
77
74
84
92
85
108
85
101
84
82
73
83
74
91
87
103
98
75
104
73
73
85
86
80
104
89
83
78
74
96
101
84
98
86
81
90
95
70
93
97
89
92
82
77
73
103
74
93
92
70
94
84
105
93
75
85
91
80
78
107
80
71
102
87
91
90
73
93
71
87
105
105
93
90
96
94
104
92
90
71
103
87
107
74
106
80
73
73
89
94
106
99
82
107
73
75
89
73
85
103
92
70
106
76
80
107
76
95
94
97
89
103
90
109
87
89
102
102
95
100
98
100
72
87
71
75
86
80
100
88
92
87
96
84
103
89
73
87
85
105
109
71
87
92
70
72
83
99
75
70
93
103
102
89
78
72
96
80
109
102
75
106
78
100
81
80
88
82
73
103
108
98
99
77
98
77
92
74
70
87
99
105
107
72
92
78
102
100
109
74
71
94
72
109
83
104
97
91
78
94
88
107
95
84
80
76
76
108
81
104
80
109
108
70
106
88
70
98
72
93
86
72
107
70
89
97
84
106
70
93
96
109
102
106
104
85
102
91
76
104
88
77
89
93
95
102
105
72
74
86
74
98
82
107
81
88
95
71
88
90
72
101
94
87
82
93
94
95
108
99
75
97
80
95
106
71
75
72
88
70
73
90
94
82
75
106
90
74
74
79
80
96
105
108
72
92
102
75
90
105
73
76
80
103
88
86
98
83
74
77
88
84
82
101
107
79
87
94
85
70
106
88
99
76
95
105
71
84
72
109
91
106
94
93
75
74
97
83
82
105
98
85
104
73
87
88
74
96
71
102
82
106
95
107
97
78
84
85
74
87
97
82
89
84
99
71
84
98
91
94
81
89
100
79
80
76
103
90
74
77
99
91
98
104
80
71
98
78
102
87
106
93
105
91
93
86
104
105
108
96
78
86
103
75
96
107
104
71
81
76
83
94
99
77
108
79
94
93
71
108
102
72
77
71
71
88
78
88
76
84
106
74
90
107
92
95
94
90
89
81
70
101
77
99
78
75
80
95
73
101
87
97
91
80
85
83
101
80
108
98
73
87
70
105
102
103
81
85
70
76
75
90
94
102
97
92
85
93
94
71
97
94
99
91
95
94
82
74
81
108
103
108
93
83
89
102
83
87
77
102
79
73
100
90
80
102
94
97
80
77
71
105
102
96
81
99
96
74
98
101
100
83
104
102
73
72
90
71
97
78
80
80
90
71
70
89
102
78
77
90
87
96
90
108
87
109
83
106
71
85
79
98
70
78
78
81
85
77
97
86
88
74
83
101
71
105
80
87
70
102
101
79
98
81
96
73
93
82
89
78
100
103
73
75
95
92
97
83
104
106
95
97
88
91
101
75
78
101
83
108
97
93
102
105
81
94
96
102
88
74
97
105
79
79
78
103
70
94
98
101
92
104
91
82
80
106
94
76
79
99
93
88
103
108
96
102
75
103
106
100
80
74
93
97
95
70
72
101
101
83
88
88
95
103
77
72
106
87
103
95
73
77
104
107
104
90
108
96
89
109
78
83
85
101
100
96
102
76
71
95
90
76
108
90
98
70
94
99
76
105
79
91
70
80
100
70
108
96
105
109
75
88
101
91
87
89
95
77
82
88
89
100
86
89
92
93
77
102
109
107
95
73
94
106
76
95
72
71
82
77
87
79
81
87
70
93
109
94
101
104
108
74
104
100
73
97
106
95
104
95
90
103
98
78
93
83
91
103
92
79
107
106
103
76
90
99
105
71
80
94
70
97
108
107
107
95
74
85
109
106
98
88
101
81
95
89
98
70
85
75
88
103
79
87
80
94
72
83
79
107
96
86
99
80
73
83
99
85
91
84
102
77
92
97
95
104
92
106
80
91
81
97
77
101
70
75
106
100
97
80
71
95
93
80
106
85
101
81
86
78
98
103
84
72
79
83
79
101
82
80
92
106
94
73
105
99
95
94
109
86
78
97
105
93
78
92
86
72
94
86
87
90
80
86
87
74
97
94
86
102
73
99
96
83
77
84
103
96
100
82
74
83
95
79
86
108
109
90
100
97
93
105
83
105
77
88
88
109
90
97
106
100
97
92
107
94
102
82
100
100
107
76
80
109
84
74
77
108
72
104
78
72
98
99
76
76
96
77
93
88
100
85
78
103
98
107
109
92
89
74
74
86
93
103
80
75
92
105
86
84
96
73
99
77
100
76
105
73
75
94
105
75
109
74
87
96
83
87
95
83
109
77
72
104
74
89
89
93
96
108
73
78
109
107
99
105
93
107
106
105
100
75
97
94
70
87
87
85
109
89
72
100
84
90
95
81
74
106
83
108
88
77
71
105
70
71
79
90
75
72
88
101
84
107
95
106
79
108
101
104
80
96
81
96
76
90
78
89
100
83
86
94
92
81
95
101
85
84
94
98
103
85
98
83
91
87
82
85
96
98
97
79
84
93
96
93
78
93
77
104
90
100
107
100
100
107
74
90
96
74
80
95
73
103
72
77
73
78
106
96
105
97
84
108
97
72
79
77
82
98
100
86
90
92
97
102
88
89
79
104
80
107
86
83
97
105
83
74
109
97
104
108
73
88
76
109
86
104
70
78
72
105
92
84
77
84
72
93
79
99
86
72
101
85
87
100
79
72
82
105
89
96
75
95
74
96
108
76
109
78
91
82
71
91
84
104
106
83
105
103
98
106
79
72
103
80
83
92
98
87
77
76
83
74
99
82
90
72
105
80
92
105
96
72
72
72
77
75
99
82
91
78
89
70
99
73
93
85
107
98
75
100
76
98
100
87
89
78
97
81
85
73
84
74
100
88
99
95
101
70
102
96
86
88
100
102
89
108
105
108
78
86
98
103
96
91
92
73
84
98
81
90
87
103
84
72
96
73
96
73
78
87
92
86
83
103
82
91
73
79
105
92
108
80
87
82
72
79
82
93
108
93
81
84
88
74
70
84
83
85
79
94
88
103
101
84
73
82
77
92
92
100
70
101
93
104
89
98
93
86
96
94
90
105
88
71
71
90
72
109
77
99
71
84
105
103
105
81
72
80
107
98
105
97
95
89
106
102
98
97
70
88
92
73
109
77
71
98
84
87
108
108
78
91
90
70
83
102
96
85
81
83
109
92
104
104
102
77
106
90
80
79
83
85
95
97
85
81
86
102
95
89
96
81
95
86
78
90
78
91
89
105
107
82
91
107
90
80
81
76
70
108
100
92
84
93
105
84
99
85
101
82
81
96
108
83
103
82
84
89
96
88
102
101
70
101
109
103
70
80
105
76
93
92
78
78
74
105
97
106
93
105
91
79
73
109
74
83
87
72
92
98
107
76
85
89
82
76
90
71
76
82
78
85
87
98
94
96
92
71
81
109
86
93
106
84
95
78
104
96
77
80
109
102
86
79
86
91
88
103
75
107
93
101
72
72
92
95
99
72
106
88
95
82
83
97
72
106
84
76
80
107
107
75
73
84
98
89
83
86
87
94
88
93
79
105
103
85
109
89
86
95
101
109
84
83
78
101
70
80
79
88
72
91
89
71
70
93
102
82
99
96
88
97
81
74
77
78
98
91
105
98
88
108
100
92
72
96
94
97
76
96
80
80
80
81
101
70
77
72
106
90
93
98
105
97
70
109
76
100
91
91
80
104
87
88
71
87
75
97
91
93
89
95
96
102
98
101
105
70
102
70
70
97
90
107
85
92
95
92
78
83
88
84
91
101
83
106
95
93
84
101
86
74
71
87
70
89
109
70
77
97
72
95
99
79
98
99
97
83
75
95
106
75
98
79
105
87
94
99
107
109
109
100
86
78
108
96
106
104
72
108
87
101
109
82
80
76
93
84
71
103
91
103
96
101
72
83
90
96
102
106
91
73
108
95
83
107
81
81
77
101
92
96
89
92
107
80
101
81
106
100
102
94
103
100
73
79
92
105
70
71
108
88
88
88
82
70
86
71
102
107
78
103
89
74
90
101
107
96
83
92
91
75
70
82
79
77
92
90
108
97
70
76
80
109
89
90
102
96
70
84
99
86
77
86
71
105
91
72
101
91
97
86
70
98
104
82
90
75
105
95
97
106
82
71
90
104
70
95
90
78
75
80
103
105
98
74
77
102
75
93
73
72
96
80
108
72
106
93
90
93
105
84
107
92
72
80
74
73
95
87
76
87
102
85
107
84
86
99
76
105
74
76
78
80
70
105
109
78
95
85
77
100
107
107
74
105
90
87
95
74
101
74
94
92
86
90
80
104
96
81
109
81
81
93
94
99
77
104
96
108
76
89
84
103
103
75
94
78
87
100
82
80
95
80
94
108
75
79
76
109
81
92
70
94
70
72
71
96
108
79
95
105
75
105
103
71
70
99
86
70
87
95
107
102
78
97
76
80
70
100
103
90
80
93
103
98
91
85
90
95
84
77
72
70
91
101
94
108
87
77
83
95
91
96
98
90
104
94
98
104
101
89
99
88
93
90
98
82
96
92
102
74
92
81
108
98
77
101
72
101
106
88
109
105
106
79
71
108
79
77
79
83
91
94
102
71
96
92
85
80
100
94
101
78
100
93
83
78
88
105
78
82
104
76
108
77
109
101
81
101
75
95
74
82
101
107
97
109
82
84
74
100
87
81
85
70
77
80
109
82
100
97
88
77
87
97
80
91
90
72
98
101
90
77
84
100
109
80
108
109
74
96
79
94
81
94
80
80
77
106
97
85
105
101
102
75
74
71
72
98
83
73
96
75
86
77
85
90
106
109
95
109
72
90
77
77
91
70
84
108
79
91
88
79
88
77
104
79
94
70
85
99
88
97
84
96
103
89
101
99
92
74
98
102
101
80
91
89
76
104
73
107
80
91
74
90
72
74
102
71
77
70
87
93
71
87
102
91
99
96
107
80
84
80
84
87
88
108
75
83
92
91
89
109
74
83
79
83
89
90
95
107
78
71
70
97
106
90
93
101
100
97
96
88
89
77
103
105
97
101
91
99
100
81
75
89
84
81
71
93
92
87
92
108
73
97
82
102
97
100
90
109
90
78
77
92
107
91
97
91
96
107
100
88
106
89
86
95
78
78
98
77
80
79
85
82
103
109
74
109
82
92
102
76
83
102
80
108
83
80
82
94
86
101
78
75
97
98
83
73
89
83
87
94
77
92
90
92
71
81
88
70
103
98
87
82
105
97
73
103
104
70
84
89
83
101
105
91
70
70
74
77
108
86
87
70
108
100
74
99
89
103
82
96
71
77
101
94
75
87
82
78
106
84
78
93
101
82
76
81
99
76
90
99
103
73
90
85
100
81
71
94
70
109
97
91
75
87
98
105
98
88
105
80
106
89
71
90
102
92
105
100
79
84
109
76
91
90
80
100
77
98
79
102
101
101
109
97
106
79
76
98
76
84
95
78
95
71
96
71
77
75
86
85
99
70
105
95
87
83
89
83
80
71
83
74
78
109
85
87
100
94
109
82
92
75
85
88
73
85
105
101
82
88
84
100
70
98
103
94
91
90
84
97
76
79
91
75
106
95
91
104
105
74
91
80
103
109
104
85
88
75
82
91
94
89
83
96
72
105
79
94
104
73
98
103
105
100
71
105
96
106
77
74
98
84
79
101
95
107
107
93
85
97
74
82
104
79
98
106
97
97
81
81
77
71
91
84
79
109
86
75
80
94
108
77
102
100
72
72
75
91
108
97
79
95
99
81
97
107
75
89
90
107
93
87
90
100
71
81
103
74
89
81
83
107
104
74
77
83
72
82
91
94
77
81
103
85
75
89
87
99
100
70
106
71
82
87
71
80
102
94
96
84
96
85
72
97
80
89
72
87
109
99
96
85
100
76
84
91
91
81
108
96
70
72
97
78
105
90
109
83
103
82
107
97
75
100
79
80
102
89
94
105
88
106
105
86
90
83
78
97
75
99
96
99
81
88
104
86
82
88
83
93
108
101
102
106
106
97
96
72
72
99
103
82
89
80
86
91
102
101
101
72
106
84
81
83
108
94
86
97
77
88
82
70
75
80
91
87
77
98
100
73
103
86
76
80
88
92
72
107
98
91
106
94
74
94
97
95
89
105
107
102
82
90
97
86
109
75
82
105
107
87
82
91
91
99
92
85
76
79
102
85
76
101
84
100
97
81
87
81
102
97
72
84
80
72
104
101
82
93
89
102
77
81
90
102
92
73
95
96
87
81
96
91
77
74
83
107
104
108
84
80
92
88
92
101
97
87
71
84
73
103
82
104
75
72
93
83
81
81
94
97
95
89
102
108
93
82
88
105
79
80
103
108
83
75
95
88
75
105
79
97
91
105
77
93
93
107
74
104
83
91
72
71
93
103
81
72
92
87
106
80
78
85
72
109
107
77
89
77
87
70
71
78
97
74
72
87
82
83
98
86
75
102
109
100
97
84
80
103
106
86
73
95
84
74
88
99
75
92
91
92
100
86
79
105
105
98
93
85
100
95
75
86
70
107
93
79
90
88
76
89
78
90
86
77
98
87
109
70
77
80
92
101
76
72
72
108
107
74
76
94
73
96
103
103
79
97
73
88
90
82
100
70
105
73
96
84
73
101
98
70
71
74
93
72
85
84
81
101
81
82
107
108
98
109
101
104
85
97
80
71
79
75
72
102
75
83
71
83
87
76
100
91
98
82
93
85
88
99
98
86
97
81
92
86
79
95
78
91
79
106
91
109
74
90
72
97
108
97
83
90
92
75
93
77
86
79
76
92
85
93
108
70
93
72
102
76
88
78
81
79
94
93
73
96
91
104
77
72
84
91
85
81
106
107
100
92
74
105
98
93
76
89
101
77
83
94
74
102
76
73
86
108
74
89
74
81
97
109
70
81
98
104
84
88
95
75
89
105
96
74
80
96
84
80
80
106
76
100
70
92
76
104
94
73
91
71
70
88
78
96
83
77
96
72
97
79
76
92
93
90
70
95
101
86
103
89
82
95
71
81
93
94
104
77
96
96
97
87
86
102
72
89
85
101
76
77
107
86
81
102
87
81
109
107
89
101
99
93
93
99
70
95
84
92
72
101
100
96
99
72
81
97
72
81
107
71
95
100
106
86
94
96
87
76
93
108
101
87
89
92
80
70
87
99
109
103
84
99
82
105
99
83
87
91
102
96
101
93
96
88
86
101
99
75
94
109
85
106
88
90
105
85
92
81
91
71
103
93
92
101
75
84
71
71
97
74
106
70
84
102
105
87
104
100
79
78
107
75
87
86
82
88
91
96
71
98
106
107
74
87
71
107
94
103
80
85
70
104
92
73
71
105
96
97
103
100
100
98
86
77
89
96
100
88
78
70
100
98
92
70
95
102
86
94
76
75
101
100
86
108
99
108
86
80
94
71
99
83
104
86
88
85
76
87
101
73
99
87
80
89
104
89
101
96
105
70
107
80
72
85
98
86
96
109
106
106
83
81
93
99
99
107
103
90
72
76
77
101
90
98
101
88
96
83
100
71
88
74
93
95
95
96
80
85
83
92
82
95
71
78
84
82
79
80
78
108
77
94
93
91
107
72
74
109
98
109
101
106
74
99
90
86
107
76
91
99
108
90
78
71
74
71
96
106
91
86
74
83
107
102
75
83
102
88
87
82
95
103
87
104
97
80
104
103
76
98
104
71
83
87
94
98
107
75
98
98
70
77
77
79
105
92
106
109
98
75
109
109
103
80
74
91
107
90
97
80
74
97
73
97
95
106
99
72
75
83
89
73
73
84
86
72
104
95
95
81
105
81
91
88
73
105
103
74
105
96
101
83
84
74
93
81
105
76
108
89
90
78
109
97
108
84
86
78
72
95
92
103
105
97
89
105
103
81
92
77
83
75
106
103
100
76
85
104
105
100
74
101
96
109
78
105
79
84
75
73
81
85
72
95
75
84
71
106
95
73
100
92
105
83
90
83
80
80
103
84
95
107
91
77
101
96
101
73
105
109
87
82
106
89
99
82
71
81
86
106
106
80
108
79
98
95
84
81
89
101
109
102
99
105
73
71
72
78
73
81
84
94
82
103
77
74
78
86
108
73
86
73
80
95
94
102
71
103
73
72
71
108
87
102
84
93
84
85
98
104
83
81
102
72
98
90
72
105
72
84
76
83
109
79
97
85
73
81
104
77
88
88
97
77
99
77
84
96
82
85
108
77
82
73
88
106
105
97
84
109
98
93
101
72
93
100
76
83
85
88
93
78
97
105
105
87
99
73
73
89
93
81
91
78
86
82
74
109
103
102
105
103
90
103
88
79
101
96
90
105
99
83
86
109
92
99
85
99
87
92
92
88
109
95
74
98
79
74
83
81
98
79
87
87
82
76
77
105
93
83
84
78
74
91
75
104
74
102
102
80
93
84
92
71
104
105
80
74
86
74
109
101
100
102
109
76
106
90
107
78
102
77
104
107
75
86
107
103
98
99
84
103
103
99
91
84
88
77
84
77
106
75
70
90
77
90
76
95
88
75
84
93
103
87
86
79
108
85
103
75
109
96
103
104
109
72
87
103
84
85
103
101
99
91
95
103
91
82
92
87
78
102
86
71
73
87
72
107
95
89
71
100
89
102
94
105
109
90
97
97
93
88
89
95
98
108
104
101
72
88
85
109
75
99
74
75
74
102
76
94
108
105
75
89
88
78
83
77
105
99
105
90
74
78
82
93
70
76
89
76
75
99
95
72
88
105
88
82
76
93
99
105
89
84
90
83
74
102
108
74
80
106
95
97
75
95
74
79
95
93
89
99
85
75
98
97
100
98
104
91
103
106
109
100
80
100
94
73
93
80
74
97
91
95
83
86
81
107
72
108
94
102
98
106
85
72
85
95
95
85
105
79
73
71
106
78
88
80
101
108
107
74
77
81
105
82
100
99
74
98
85
93
74
95
74
98
83
74
105
107
73
74
93
78
76
82
106
80
74
95
88
75
100
94
92
107
106
75
75
109
88
108
97
82
99
95
90
83
87
90
86
101
83
74
82
95
104
109
92
105
77
99
103
71
70
82
72
86
78
98
104
103
99
82
100
90
81
80
97
76
74
102
92
76
92
107
89
74
107
71
73
89
81
75
82
72
91
72
98
99
70
96
91
103
74
106
86
93
85
89
81
102
107
79
107
97
93
94
81
73
79
72
90
90
95
79
104
93
82
103
104
74
81
75
92
85
77
77
86
84
86
98
80
88
106
93
106
91
76
91
84
89
91
79
100
106
85
79
82
78
84
87
90
106
95
100
106
82
100
76
85
95
93
99
79
75
72
97
98
83
83
75
104
109
104
86
98
97
102
84
72
101
88
88
74
99
105
76
79
94
72
101
107
109
97
85
102
79
100
97
75
96
90
84
79
83
109
92
83
80
103
84
74
103
70
82
79
102
86
89
97
72
104
74
88
79
82
78
101
99
94
95
77
107
103
104
87
91
82
97
86
87
82
72
96
87
78
85
104
107
95
85
97
97
76
89
76
100
88
103
92
96
79
105
80
76
76
109
72
70
87
102
100
93
78
80
98
83
105
97
70
73
106
94
71
96
77
92
71
85
84
81
106
101
94
89
99
74
81
101
108
84
93
105
109
75
75
85
95
99
94
86
97
97
89
86
82
70
74
90
96
90
93
74
81
82
75
86
72
109
92
102
98
84
75
99
81
96
90
101
104
104
102
85
72
99
83
76
91
82
107
90
104
106
99
99
79
89
103
80
109
86
79
98
105
94
82
92
103
93
74
90
77
98
79
108
101
102
81
71
99
101
104
102
103
94
103
93
85
96
105
103
75
101
105
88
74
92
72
85
97
97
107
90
102
104
107
76
78
74
90
105
80
103
98
109
101
85
104
103
98
103
97
74
89
81
75
88
77
107
103
108
93
101
78
103
82
99
82
102
100
80
94
89
98
79
72
103
97
87
70
88
80
71
87
75
81
91
84
90
89
102
87
107
108
89
82
72
107
90
82
96
103
104
102
103
91
86
107
108
93
78
106
90
109
88
92
90
81
83
84
102
88
83
86
96
78
108
103
108
87
78
109
84
103
105
80
107
97
83
98
100
103
80
91
84
82
105
87
85
74
104
108
84
96
74
78
93
90
78
109
85
103
86
107
105
100
100
70
93
102
103
85
87
88
85
97
70
103
106
97
85
92
82
82
84
82
84
102
97
98
81
85
74
91
99
98
70
85
96
80
101
80
105
76
70
88
70
92
88
92
101
96
90
95
91
104
94
78
97
95
75
108
90
103
107
99
85
108
85
91
94
85
92
88
90
80
87
79
99
85
81
104
72
71
100
83
80
86
106
92
96
104
101
73
76
89
72
102
83
104
85
94
94
77
96
101
97
88
83
92
99
83
76
77
107
91
76
87
91
83
97
100
106
105
78
81
101
77
97
109
77
95
86
102
95
96
74
97
103
84
99
88
78
103
86
81
87
86
80
76
76
79
81
77
70
83
70
75
93
106
70
80
101
96
80
75
81
103
75
82
84
109
93
75
94
104
88
101
107
103
90
82
83
98
76
104
85
77
85
97
93
104
71
71
72
99
75
108
101
73
81
73
87
106
91
85
80
78
90
89
104
102
88
89
79
101
80
85
87
87
99
105
109
88
85
82
81
88
103
82
107
78
70
70
97
75
91
102
95
105
84
100
78
84
84
105
72
95
87
92
91
81
80
84
76
81
102
81
70
88
108
70
98
95
72
97
97
97
87
101
81
106
95
88
108
79
76
73
79
104
95
77
105
92
92
74
83
84
99
107
71
90
106
85
83
99
97
97
80
107
94
76
78
72
81
99
83
106
98
107
76
105
82
103
90
103
88
99
73
87
101
81
93
95
73
74
78
90
88
72
109
97
71
81
95
99
100
94
82
90
109
77
86
96
71
108
102
74
90
71
79
108
90
83
104
85
106
100
82
93
108
108
73
100
100
85
108
76
86
81
82
105
85
88
94
80
109
98
84
94
91
93
108
83
92
73
79
102
107
90
87
91
71
78
84
75
108
88
92
106
81
84
99
94
90
83
91
102
78
106
93
90
76
78
81
90
82
90
107
74
86
101
102
76
88
86
101
70
103
73
80
101
91
102
76
82
92
96
78
108
73
107
73
102
75
82
77
75
107
88
107
95
105
77
87
96
71
107
93
109
77
90
95
70
102
105
101
92
91
109
70
81
70
87
95
75
74
105
90
93
81
105
88
79
102
98
105
96
108
79
75
97
86
81
74
99
81
107
103
92
95
99
92
70
77
92
71
96
103
107
109
73
91
94
81
90
99
75
101
75
103
72
104
73
98
79
104
87
108
77
82
82
96
98
96
74
86
83
82
85
76
95
80
78
81
87
79
94
106
82
82
82
104
95
107
78
74
84
98
103
95
78
109
95
70
82
89
109
98
92
80
75
80
70
75
108
107
108
90
77
90
101
81
75
103
84
109
94
100
79
96
109
82
104
105
98
90
107
88
79
103
79
72
89
107
104
86
75
81
76
89
78
75
85
106
96
109
95
102
99
105
98
105
96
85
105
109
107
90
76
108
97
78
76
107
87
77
77
71
76
75
104
100
106
101
106
84
81
96
103
77
85
98
75
102
89
80
74
90
107
103
78
86
82
80
74
72
70
101
109
105
86
73
88
77
72
72
99
95
101
105
77
90
90
85
83
78
70
83
107
80
81
106
106
93
82
75
106
104
100
109
71
74
90
91
100
89
96
84
98
101
108
89
73
78
92
84
74
106
74
102
76
78
85
89
109
106
90
80
76
106
75
77
85
106
87
105
92
91
83
73
93
91
70
78
99
73
107
85
104
81
98
81
93
77
80
78
82
77
73
72
104
95
75
75
93
99
85
76
72
73
95
87
93
108
108
98
83
74
109
106
76
108
104
109
85
84
97
104
103
85
87
98
94
103
99
80
88
106
92
82
71
83
86
70
82
93
92
84
105
106
76
90
96
91
83
80
86
91
104
86
70
90
85
93
77
73
107
100
109
98
93
84
74
90
104
78
84
73
89
99
108
81
71
108
90
101
91
100
70
76
78
90
109
86
90
83
102
78
83
95
102
104
79
107
105
70
100
80
74
78
104
89
77
102
79
90
91
98
89
95
94
85
90
83
77
86
70
75
89
85
108
106
89
71
90
78
84
94
82
106
78
76
91
109
108
73
83
75
107
83
76
91
109
86
84
89
86
101
73
77
102
87
77
83
104
109
103
108
82
82
98
85
102
100
73
103
81
91
107
79
81
80
76
103
85
80
108
108
71
97
84
81
77
91
86
100
89
90
77
71
85
84
109
106
83
86
75
103
84
108
72
86
95
80
98
106
76
107
91
76
73
90
86
87
70
74
72
75
100
95
92
102
83
82
82
96
76
105
96
77
100
75
72
80
107
76
100
78
99
94
104
105
101
105
88
79
104
76
90
82
91
84
92
104
109
76
81
94
91
70
80
97
98
97
109
109
102
84
85
90
82
89
84
83
105
94
81
89
76
72
92
72
76
104
94
71
91
83
74
78
70
108
99
75
78
101
71
86
104
87
90
102
89
102
78
99
93
72
97
109
90
95
87
92
89
84
105
74
77
71
70
79
87
76
74
99
72
88
93
105
80
101
101
106
79
90
78
103
107
79
104
91
74
80
74
96
88
79
102
73
82
79
85
104
84
78
92
90
72
106
71
95
88
79
93
86
102
88
76
96
105
109
103
100
83
99
77
107
106
98
76
100
75
99
77
107
101
105
90
102
77
74
85
97
78
77
75
90
92
102
89
71
73
79
93
102
95
98
80
109
70
85
75
100
96
76
88
103
108
109
90
88
73
96
96
77
107
94
77
102
90
108
108
74
97
72
90
74
76
75
76
78
94
79
91
79
81
82
109
76
103
84
102
105
98
102
103
101
95
83
77
82
72
107
93
99
89
102
103
97
75
70
104
102
88
80
109
102
70
109
101
82
104
107
70
71
97
73
90
79
98
91
99
103
109
91
101
96
83
97
91
89
100
76
109
109
77
97
80
89
103
84
94
74
93
109
96
92
101
76
90
101
91
79
86
83
99
107
107
91
70
98
70
84
94
77
106
75
109
82
108
81
75
71
74
74
95
80
70
103
96
100
86
78
108
87
70
87
104
100
103
99
81
73
73
97
83
72
79
97
80
82
74
100
91
95
105
83
85
92
87
71
72
100
102
73
83
98
75
92
109
109
73
80
101
93
99
71
89
70
76
101
109
90
73
76
87
76
90
77
89
98
76
94
86
98
82
72
105
73
102
80
98
79
82
89
90
79
92
104
105
102
106
104
102
74
89
87
87
109
77
97
73
89
100
107
90
70
83
82
85
83
102
85
103
82
90
80
96
102
77
75
99
97
96
91
81
81
99
87
98
90
106
101
102
75
87
86
100
90
104
79
73
96
107
82
99
77
87
92
78
107
108
104
71
78
78
92
71
103
78
99
82
85
74
107
72
93
78
87
100
83
82
103
83
82
109
94
72
72
91
93
102
94
100
103
108
86
77
77
104
93
90
106
101
76
92
105
71
89
79
94
73
107
96
106
93
87
93
75
100
108
85
83
102
70
82
104
76
73
108
108
107
91
96
94
108
95
80
73
75
87
85
75
108
90
98
72
109
79
75
88
88
81
93
103
103
75
72
83
109
102
91
99
82
72
95
94
71
79
70
90
91
95
77
86
109
96
96
82
108
83
85
109
83
86
76
79
96
78
77
96
72
109
99
105
75
77
95
90
86
83
79
91
96
71
89
79
92
100
99
94
97
75
109
98
95
92
89
84
75
87
81
72
76
87
98
102
71
89
88
98
72
93
91
102
90
90
104
103
73
94
90
93
78
86
74
79
90
90
85
103
87
85
85
89
91
84
75
98
78
109
91
86
102
82
88
90
89
94
90
84
100
103
109
72
105
92
85
108
93
97
70
78
91
81
80
108
99
108
99
101
96
89
79
102
105
84
72
103
93
76
80
103
108
79
109
77
99
103
84
73
88
105
102
74
72
106
75
82
94
109
108
87
108
84
77
98
86
91
98
85
77
107
97
89
106
101
105
94
76
100
89
103
107
73
77
108
78
105
100
97
106
90
77
104
75
94
83
75
104
95
95
84
106
75
77
104
70
98
73
73
108
94
76
108
78
73
105
107
84
78
93
75
87
81
95
80
78
104
108
87
102
102
85
76
84
94
101
94
88
101
70
72
82
75
84
97
88
99
108
78
100
80
101
78
103
74
72
79
90
74
77
79
103
99
103
94
75
98
80
106
79
79
71
98
79
107
97
79
99
84
101
79
100
96
77
100
97
87
106
77
82
75
104
108
84
100
82
96
95
95
70
83
100
95
100
86
100
71
91
84
101
71
85
93
85
93
84
76
100
77
85
107
101
76
84
100
109
82
96
107
80
94
88
107
104
70
70
78
95
103
75
74
71
74
91
72
79
72
98
86
97
79
88
87
74
77
105
81
82
84
96
104
93
71
85
105
105
84
108
97
72
98
96
79
72
109
79
104
74
96
72
82
104
106
107
90
90
101
96
106
99
98
98
101
103
105
77
93
95
96
94
103
97
89
106
109
74
73
90
85
85
78
85
71
105
73
102
101
77
108
71
102
87
94
79
108
94
76
104
71
92
106
100
72
88
91
105
107
91
70
90
95
74
97
73
79
83
74
90
102
75
83
105
71
103
94
70
91
82
74
103
87
78
108
103
100
87
105
86
80
108
83
106
70
79
106
92
106
103
109
101
103
84
90
107
92
91
98
87
84
98
72
81
85
95
91
102
75
76
74
73
70
93
104
79
90
101
81
87
70
86
91
74
71
71
72
79
109
99
99
83
77
104
89
95
105
109
90
106
86
79
79
80
76
94
95
99
99
76
109
89
100
109
76
94
77
109
94
108
74
95
72
80
96
82
107
79
83
105
71
89
83
74
80
85
74
94
85
85
89
107
79
99
76
87
79
91
91
94
75
75
107
94
83
81
108
105
102
100
75
90
74
77
99
92
92
79
72
87
109
85
93
76
78
99
94
91
93
80
88
82
96
107
72
97
81
99
97
77
107
83
82
90
76
94
79
76
108
87
102
87
109
100
101
101
99
75
99
88
77
94
100
89
108
92
89
81
76
72
95
109
74
102
78
95
93
106
77
99
103
83
108
103
85
105
91
103
77
83
89
87
88
84
87
90
72
86
78
83
76
103
102
99
82
100
89
98
92
83
71
97
102
101
99
103
94
76
85
106
85
89
82
96
102
82
105
103
84
90
103
74
105
73
86
109
76
93
81
99
98
81
107
109
80
101
105
78
104
102
93
109
75
95
84
99
70
80
82
94
79
95
77
101
89
109
95
100
71
82
96
74
94
90
99
89
102
97
71
94
98
70
106
98
70
85
89
88
88
95
90
80
106
101
94
83
95
91
73
72
100
106
92
86
73
104
78
91
72
100
86
93
109
100
83
79
78
81
88
70
77
70
74
109
100
101
99
93
73
99
77
97
74
93
103
97
98
82
76
100
109
107
108
84
80
97
106
101
100
85
80
103
93
78
104
108
102
70
77
107
96
102
73
102
74
99
104
81
98
81
76
92
77
96
91
107
76
83
70
92
96
80
99
97
79
109
77
94
71
72
91
109
99
91
102
80
76
109
95
103
97
92
80
91
97
97
97
82
96
93
71
100
89
99
88
109
84
109
82
100
104
84
84
75
98
82
77
72
103
83
108
75
70
83
71
105
97
89
104
80
101
92
93
84
72
109
71
90
108
94
77
100
97
73
82
100
87
76
108
108
107
107
79
84
98
78
89
109
76
93
103
95
99
90
80
102
85
102
96
82
93
78
80
94
105
87
108
73
72
80
93
108
74
71
80
76
108
78
78
80
99
103
86
93
89
94
88
104
87
78
91
91
74
71
106
92
73
95
105
98
101
70
95
90
105
78
79
105
85
90
79
106
78
102
108
91
80
81
109
99
78
78
96
102
81
73
106
85
96
80
75
95
103
71
73
108
91
80
92
76
76
107
106
75
84
83
75
96
87
105
79
87
76
85
71
83
75
82
98
88
95
82
97
104
93
106
85
91
70
78
103
77
106
88
104
91
93
85
106
94
95
104
103
99
86
76
81
74
71
76
97
78
93
93
99
92
105
103
74
87
74
79
88
92
94
105
73
73
98
108
89
75
79
86
83
105
86
90
100
91
102
94
79
71
99
90
97
108
104
70
80
96
88
100
96
88
90
102
70
103
75
80
104
104
104
89
93
95
92
79
81
101
103
105
76
98
96
88
92
89
84
72
87
94
72
83
85
82
91
88
85
75
103
74
96
85
82
83
107
102
104
107
97
89
99
76
80
81
109
72
90
104
77
84
103
88
81
102
105
82
107
102
72
70
95
81
95
98
84
92
71
94
81
95
82
95
89
79
83
74
90
80
100
100
83
75
72
72
100
85
82
96
90
88
93
87
107
102
78
71
70
74
103
87
71
90
102
95
74
106
77
94
102
82
98
100
84
76
82
100
72
86
106
92
79
79
94
104
73
95
93
75
74
95
93
80
107
76
83
81
78
70
102
109
106
86
77
87
107
71
77
77
94
83
103
86
83
97
90
103
108
94
77
96
101
99
72
106
109
101
75
84
84
82
102
95
93
74
75
86
94
76
105
98
85
108
83
109
86
81
73
93
82
75
92
100
90
76
79
77
108
102
101
89
85
94
70
100
88
80
70
105
70
92
71
109
70
71
85
98
95
76
98
74
108
76
108
80
79
84
76
89
89
95
97
80
80
107
92
83
74
96
92
96
74
102
101
84
97
102
85
101
86
100
71
78
105
107
108
99
84
90
78
94
75
78
102
81
78
72
105
101
108
104
103
107
98
90
77
80
85
104
99
102
84
80
103
105
82
88
75
79
90
79
101
84
107
85
86
108
78
86
78
74
86
82
86
81
80
105
101
105
74
94
79
77
89
73
98
106
78
97
91
82
81
82
97
82
104
91
72
97
81
107
81
90
71
78
104
107
82
98
103
71
74
71
89
105
108
102
72
74
94
72
99
77
80
91
74
105
99
73
84
87
79
97
76
100
79
98
95
89
88
93
89
90
107
75
97
91
78
103
74
89
89
100
91
88
79
90
105
97
100
93
74
71
103
103
86
90
96
72
106
107
99
75
77
105
93
74
79
91
102
92
102
95
96
102
74
83
72
88
92
82
74
74
91
89
81
70
79
74
71
87
97
105
98
107
98
77
73
93
107
89
109
78
109
84
107
93
106
77
88
76
100
75
78
85
109
101
95
101
86
101
79
72
76
82
103
77
88
70
86
75
101
77
99
92
95
79
105
73
107
104
106
86
105
94
79
80
73
90
94
76
101
91
78
73
91
87
103
81
87
76
101
100
86
102
87
70
85
74
74
106
75
106
76
79
100
81
70
98
80
98
81
84
99
84
100
93
70
105
108
80
78
71
102
89
84
70
81
77
93
91
96
73
107
92
94
78
107
85
98
107
104
107
86
99
104
103
74
81
101
77
94
73
79
94
80
105
89
83
107
96
97
75
89
109
91
94
89
91
104
90
76
100
99
86
109
108
76
78
96
103
73
102
109
93
98
106
76
84
83
70
98
87
87
97
109
71
75
87
85
79
89
96
84
76
71
75
103
92
95
103
85
102
80
107
95
107
77
83
97
107
84
78
73
99
73
87
109
77
108
73
89
81
80
86
105
107
86
97
84
101
82
107
74
70
107
91
79
91
73
89
104
85
90
109
77
107
94
107
80
73
76
98
102
97
108
101
99
90
86
106
107
102
107
73
94
96
83
95
75
101
102
100
72
106
95
105
81
95
86
70
79
83
109
107
99
72
85
78
76
96
89
108
84
79
75
107
74
99
102
71
84
82
85
99
90
83
82
83
99
96
72
104
74
105
109
76
81
101
107
102
73
93
78
80
97
97
75
79
109
79
70
107
97
97
108
96
102
103
107
83
83
100
70
105
96
85
70
77
71
72
109
104
101
89
85
94
80
75
89
102
72
85
82
83
98
90
92
89
75
102
98
73
74
102
87
89
74
71
86
109
78
97
77
75
94
101
78
70
89
85
78
104
107
84
97
70
73
86
86
95
98
72
70
77
80
107
75
79
87
85
103
86
102
73
91
78
76
88
89
95
77
72
83
93
77
76
93
109
83
76
96
90
90
102
97
86
76
109
90
76
104
73
72
78
70
95
109
106
96
83
102
83
75
99
87
109
78
86
93
104
107
92
76
89
76
71
107
101
71
91
101
104
100
90
97
86
71
76
76
95
74
93
93
80
93
78
89
71
96
88
89
87
79
95
97
94
103
76
106
75
81
109
106
83
108
81
74
93
80
94
72
101
97
86
94
71
72
82
99
109
80
77
97
106
95
100
103
87
76
84
95
93
96
100
74
77
80
85
91
101
74
80
105
100
93
94
89
103
70
86
100
85
97
90
77
96
84
83
101
101
98
95
106
86
95
87
93
77
103
102
76
100
108
71
80
83
88
70
103
74
79
106
84
95
73
73
85
90
86
84
85
88
74
93
92
85
76
95
92
108
82
76
93
100
103
77
75
91
95
93
70
78
90
86
107
85
88
105
73
73
76
88
70
103
84
103
83
89
96
90
109
75
88
104
70
107
83
73
92
76
109
91
79
93
104
99
81
94
103
107
73
74
87
78
72
100
71
76
80
75
90
82
98
87
106
97
103
97
71
107
97
86
96
81
99
109
105
80
70
73
78
109
109
88
70
95
83
101
84
100
108
91
82
87
73
83
71
96
96
96
107
108
108
89
96
102
80
87
76
70
98
95
84
73
86
82
74
98
87
83
74
104
70
105
90
87
108
86
96
75
90
94
81
98
75
100
70
98
104
82
73
92
101
72
81
95
74
79
99
103
101
78
98
71
109
76
80
84
90
79
77
84
99
101
70
96
88
97
98
86
98
80
98
98
95
76
95
85
74
80
104
86
99
102
83
105
83
70
100
77
107
71
101
75
85
75
77
107
82
70
83
105
94
79
108
96
73
98
100
109
103
85
105
96
90
82
86
95
95
109
79
91
70
102
104
86
78
97
83
93
97
92
98
107
91
96
89
71
81
84
96
79
104
78
72
108
75
91
75
79
89
98
89
101
109
92
104
79
104
70
99
77
93
74
86
85
75
107
81
102
72
88
108
89
100
83
98
106
84
97
81
108
72
100
105
91
87
104
82
102
106
100
99
100
70
106
80
77
101
72
100
85
95
79
87
85
93
107
98
107
79
76
89
107
94
85
79
109
100
108
105
105
99
73
75
105
76
106
80
94
105
70
73
93
109
105
107
82
74
95
77
94
98
84
82
86
82
100
85
84
84
86
82
106
93
86
85
100
95
91
85
109
95
94
80
85
73
77
101
81
98
95
78
99
103
89
93
100
100
88
104
103
88
71
88
80
79
75
86
77
71
85
103
108
103
73
74
77
77
85
71
81
95
83
91
91
77
74
81
78
101
98
99
79
86
95
81
108
73
96
73
77
84
104
95
90
97
76
103
94
88
79
105
98
72
107
108
77
91
72
87
82
99
90
84
83
103
78
101
85
91
108
75
107
87
100
85
95
102
106
78
71
81
108
90
109
101
94
90
81
83
99
70
90
79
79
91
91
91
75
70
75
77
89
103
103
86
72
80
108
92
106
104
96
106
92
91
72
86
101
85
96
92
91
87
70
81
83
89
87
83
79
81
78
87
77
75
74
98
93
105
96
84
83
84
97
90
95
84
94
100
89
92
72
94
80
106
108
74
108
102
88
85
74
104
87
105
97
87
83
108
91
87
92
95
94
107
83
89
84
100
76
77
103
88
100
89
81
94
86
88
91
97
93
75
84
75
85
75
101
100
106
98
82
75
94
83
99
85
85
79
92
75
100
74
82
88
81
93
96
76
84
77
88
99
70
100
93
98
89
102
96
106
80
70
74
85
80
90
82
105
80
92
103
91
85
83
89
109
73
74
75
75
76
103
83
91
108
79
93
108
89
72
92
80
108
103
98
84
89
99
83
79
90
89
77
97
87
81
107
87
75
72
82
84
80
72
75
106
109
86
83
105
79
106
79
79
94
84
100
97
90
101
101
72
70
108
78
96
91
90
81
101
79
72
95
79
96
103
90
87
84
96
104
106
75
93
106
102
79
79
102
99
90
106
74
100
81
78
106
93
88
104
99
87
70
72
89
107
106
92
102
75
78
109
84
79
75
103
85
86
102
71
105
75
73
97
88
82
77
104
96
91
70
89
81
87
103
89
95
72
96
102
96
70
85
76
79
87
81
90
72
78
99
108
92
104
80
106
96
99
89
80
81
96
94
79
99
98
82
100
74
103
97
103
104
71
80
71
72
107
77
101
82
79
102
102
89
91
94
109
97
78
85
88
77
92
87
97
80
75
80
103
82
88
78
78
101
87
80
77
73
98
101
79
85
81
88
85
70
75
107
82
101
108
74
86
84
88
97
94
81
103
80
76
103
74
102
75
105
93
108
95
88
109
99
74
103
91
72
97
77
105
103
105
106
85
79
108
78
76
92
80
78
81
74
74
96
70
89
78
98
98
92
75
70
75
70
85
105
94
87
90
75
85
107
74
105
96
100
96
74
71
105
102
87
87
71
72
87
99
87
104
97
77
72
82
91
101
103
72
74
89
84
97
91
86
86
85
98
94
89
76
97
74
72
88
100
73
78
72
74
98
89
87
78
103
105
84
86
75
101
99
84
101
79
84
108
101
97
98
85
78
103
95
91
100
87
70
76
80
71
105
106
91
70
84
97
71
86
106
105
76
72
70
77
73
80
84
101
89
106
89
90
73
102
81
104
86
80
80
80
108
99
91
87
93
78
79
81
94
95
98
74
73
104
97
87
102
80
90
80
83
107
83
72
70
92
82
88
96
98
102
105
92
104
86
80
80
106
97
87
92
93
109
74
81
78
84
104
108
102
76
75
82
108
78
104
102
91
90
82
105
109
80
84
73
97
74
103
109
97
104
91
88
87
84
81
77
89
104
104
74
74
108
86
71
91
84
90
88
82
97
104
73
90
95
92
74
91
103
82
108
75
78
93
91
93
94
87
76
98
91
89
80
85
88
99
82
90
99
102
109
98
71
88
105
88
81
104
72
80
109
90
108
73
105
109
108
96
106
107
71
87
94
97
88
70
98
73
106
89
109
92
109
89
84
91
73
88
103
79
83
87
76
95
86
74
99
107
100
103
106
87
109
106
90
98
95
101
105
103
103
102
97
83
103
89
96
72
104
104
98
106
98
80
85
97
90
78
83
78
82
106
101
81
87
99
101
90
88
90
109
86
106
99
86
100
100
98
84
97
79
90
72
81
109
108
86
87
103
78
105
87
79
90
83
74
101
104
105
106
96
86
93
102
99
103
78
95
91
106
70
108
78
78
91
76
102
74
96
75
77
81
76
86
91
101
91
74
86
91
100
73
106
73
75
79
73
107
104
76
77
75
88
99
84
90
98
99
90
74
92
83
101
103
70
83
77
102
79
104
107
99
96
97
92
89
102
104
101
70
92
75
73
85
96
100
97
96
84
93
84
85
80
80
103
80
86
78
94
90
94
94
99
89
92
72
78
72
78
98
103
80
98
76
72
70
96
79
102
79
107
107
81
98
102
89
82
101
76
70
101
75
89
106
71
76
95
95
98
85
92
78
70
81
98
86
90
96
102
70
83
80
78
77
108
97
76
72
103
77
88
92
83
104
94
101
79
108
75
94
93
72
86
98
90
90
76
90
70
75
92
95
103
106
93
99
75
99
76
83
85
105
98
104
87
97
86
95
90
106
103
77
97
74
101
70
93
106
80
104
76
85
105
92
107
77
72
101
94
103
77
100
109
80
99
106
74
79
97
95
96
85
91
107
78
82
105
92
100
98
95
72
78
88
85
75
94
105
103
90
94
101
95
81
103
106
97
90
84
97
88
87
74
85
103
106
108
97
75
90
73
73
103
73
105
75
95
77
97
87
82
83
107
70
106
74
98
71
93
95
92
72
105
85
104
82
107
80
74
85
97
98
76
95
73
85
80
95
97
89
84
78
89
81
108
97
78
97
86
96
72
107
106
82
93
90
89
93
95
78
104
88
108
74
93
108
102
82
73
83
82
73
86
79
76
89
106
70
83
101
76
76
88
76
103
105
109
78
70
85
84
76
95
106
77
91
75
81
108
73
76
103
82
107
87
97
83
78
76
77
73
101
84
75
71
75
107
109
72
105
78
82
96
105
103
105
99
108
86
93
101
74
106
107
82
88
88
92
103
87
75
71
72
90
85
78
107
95
101
84
109
98
90
101
76
87
103
103
93
103
87
88
95
76
107
96
80
104
105
88
94
83
95
91
72
76
80
100
70
74
78
104
86
91
106
77
89
76
80
99
93
82
70
82
84
105
70
85
77
99
73
86
89
107
103
81
73
90
93
93
71
90
102
104
74
82
93
83
101
105
73
78
98
102
82
76
75
79
75
91
89
104
105
109
81
71
99
106
84
70
75
90
93
80
92
85
97
72
107
101
74
94
99
87
84
75
84
70
100
79
76
88
85
97
105
77
85
103
77
101
71
70
106
73
90
76
88
70
75
101
102
109
70
83
85
102
75
73
83
78
102
105
70
94
95
76
103
79
108
83
74
99
108
99
75
77
93
86
91
91
71
80
75
106
107
71
96
76
79
79
104
86
99
93
100
93
105
98
86
106
88
74
93
90
97
109
94
107
86
102
109
108
80
91
77
101
88
84
76
95
96
71
74
101
74
106
76
75
89
83
108
78
72
85
99
84
72
92
98
93
93
99
77
90
99
76
73
85
85
88
88
74
94
87
98
108
99
74
94
90
73
70
74
91
83
108
87
96
79
88
96
98
82
103
76
100
73
76
82
98
81
76
77
106
105
88
88
89
71
107
91
106
79
101
79
90
75
79
87
71
88
80
71
83
109
80
97
107
106
83
78
109
102
103
90
81
73
74
91
79
92
94
91
105
93
102
84
74
103
94
107
72
106
101
80
70
87
86
85
85
102
80
77
93
99
107
72
78
95
84
76
91
75
107
101
73
90
98
72
76
79
88
84
75
85
103
75
85
102
75
96
101
70
101
81
82
88
94
78
73
105
80
74
79
76
89
98
89
70
105
92
71
83
86
90
73
104
102
103
96
91
78
73
104
88
80
95
92
93
98
93
99
80
100
94
90
80
81
81
74
81
75
87
107
92
89
108
97
101
98
92
86
87
78
72
96
85
106
97
76
91
77
77
91
85
89
79
84
85
76
75
91
75
71
82
72
80
78
83
91
99
106
76
95
96
84
103
76
78
107
95
97
80
87
93
73
94
95
94
94
109
96
88
76
76
94
109
103
96
80
94
87
107
79
84
91
96
72
107
76
98
75
81
75
93
106
93
78
85
101
99
95
102
70
71
77
76
73
71
87
84
70
102
94
91
73
95
106
77
82
79
80
88
97
70
99
98
92
86
97
81
109
77
87
90
77
88
71
83
86
97
88
101
79
107
95
92
72
98
109
105
81
73
81
106
95
78
72
104
103
72
98
105
101
76
71
103
87
92
89
74
77
82
83
73
84
108
91
102
92
72
108
99
79
97
79
103
107
82
98
101
73
107
106
79
102
98
78
79
82
107
99
87
88
99
103
98
109
89
80
105
77
79
109
106
82
80
96
95
94
98
90
99
107
109
103
90
72
100
108
105
79
100
94
83
85
91
108
86
90
100
72
86
74
71
74
96
83
93
70
106
95
93
103
105
100
105
84
106
75
93
89
109
102
72
105
95
85
83
107
87
83
106
107
99
76
105
106
84
105
74
72
88
96
100
89
78
78
109
86
95
86
99
94
91
95
103
100
97
88
75
107
76
71
102
87
74
83
93
70
78
86
92
95
105
103
102
89
108
79
97
79
105
107
86
90
91
73
80
88
75
94
98
76
76
103
101
70
89
79
82
77
70
81
85
82
85
102
92
94
82
96
71
102
104
104
79
70
85
109
107
108
91
103
89
71
97
75
98
96
106
103
105
87
100
89
109
73
84
91
93
88
72
89
92
76
100
70
102
73
105
84
105
88
91
90
79
99
82
75
91
91
108
109
73
108
80
95
108
108
102
86
106
88
93
82
74
103
77
101
106
83
71
108
106
85
90
80
85
96
103
87
104
105
87
79
99
85
99
107
89
92
107
105
99
108
75
74
89
97
100
92
75
84
87
109
85
98
80
81
106
86
88
70
106
81
82
86
87
89
107
76
92
80
108
107
79
103
105
83
73
82
87
109
99
93
98
97
83
71
84
93
103
94
93
73
97
76
87
82
100
105
97
108
94
104
71
99
87
94
96
107
105
72
104
94
79
101
78
102
75
109
80
108
107
71
70
73
76
105
93
82
90
75
94
89
103
77
78
98
90
91
78
83
105
101
101
80
74
84
77
77
102
90
91
70
95
82
75
99
108
88
100
88
107
81
104
84
94
70
103
88
73
109
76
99
98
97
80
107
82
91
93
86
83
81
85
82
107
93
85
98
80
81
100
98
84
107
105
77
92
83
84
101
99
76
74
106
100
74
95
94
79
81
96
89
107
79
103
105
70
83
90
93
89
109
77
81
80
79
95
100
80
109
83
104
105
73
81
82
78
74
76
99
74
86
108
94
94
86
95
75
97
97
107
99
87
91
104
77
101
95
84
104
83
99
70
90
82
99
95
97
73
105
94
80
91
75
75
76
91
109
94
88
99
89
81
77
89
100
99
86
75
106
86
75
100
109
100
84
95
106
94
72
100
109
100
70
105
87
92
77
75
92
92
95
93
82
82
107
87
70
71
75
91
81
95
75
84
100
77
84
104
87
92
103
80
96
72
85
77
90
94
95
101
84
98
90
70
76
80
101
75
99
101
102
100
83
102
89
107
102
97
82
100
97
99
86
84
81
81
85
94
85
83
99
82
108
86
95
95
80
106
107
90
107
75
93
104
72
91
101
104
94
88
96
100
88
105
76
73
89
87
94
85
102
106
88
105
108
98
95
96
76
71
108
103
76
91
89
108
97
94
78
75
89
82
92
103
109
72
99
79
103
98
87
82
88
75
104
91
77
92
74
88
83
73
73
103
104
83
81
82
84
103
102
70
89
95
79
70
87
71
73
85
91
74
89
92
80
94
105
72
94
70
95
95
106
87
106
101
71
85
95
74
100
70
99
103
109
95
90
105
78
78
71
92
101
80
92
107
80
91
92
79
95
87
104
103
91
89
87
79
95
104
89
108
94
99
86
70
101
74
74
71
75
85
76
75
70
82
72
72
71
107
97
73
97
86
107
101
77
71
80
85
82
91
81
78
108
94
79
84
98
88
98
88
108
76
98
99
109
81
76
99
109
92
80
101
83
85
105
84
97
73
76
104
79
88
85
99
101
72
102
80
91
74
72
77
108
75
103
91
82
101
106
99
107
87
73
91
109
91
98
90
86
95
108
72
79
94
101
97
105
87
74
99
73
70
102
70
88
106
101
84
86
103
72
89
80
92
107
93
79
96
77
103
92
73
89
108
81
77
91
89
89
92
100
77
82
70
98
82
106
89
106
70
88
93
87
92
101
108
95
73
106
108
76
76
75
103
72
109
101
77
109
90
108
88
100
101
88
72
77
82
81
80
70
80
104
105
87
85
72
101
109
103
77
103
93
73
108
81
84
82
99
86
77
108
106
105
98
92
75
102
70
77
93
71
91
74
95
98
72
76
107
97
93
80
81
73
81
77
78
88
84
92
76
80
73
105
100
81
86
97
105
102
87
92
71
103
79
85
92
71
105
80
85
95
87
108
109
106
104
97
105
90
79
75
87
99
98
87
73
79
88
109
92
74
94
103
70
70
92
81
71
106
75
74
87
78
106
98
97
99
90
84
70
72
94
102
109
96
87
102
105
82
95
79
75
73
84
85
74
86
72
101
73
74
102
89
80
72
95
91
101
98
87
79
76
107
73
77
108
101
90
87
93
108
76
96
79
91
89
86
84
109
76
90
105
71
82
94
96
76
86
78
106
88
94
97
75
98
72
89
70
83
97
98
100
100
79
96
79
96
77
92
107
77
79
104
103
89
103
96
80
106
95
100
71
70
96
99
92
84
107
74
91
107
77
78
102
74
72
102
75
72
80
76
71
101
75
70
75
80
93
72
79
106
74
76
84
74
85
109
86
91
81
95
97
99
86
91
107
70
79
99
91
75
97
73
73
108
102
100
78
76
83
77
93
92
71
71
74
102
109
102
97
102
75
89
90
93
100
83
92
96
75
86
104
81
105
105
72
76
97
91
95
85
90
96
106
72
109
85
104
96
80
86
78
92
81
96
94
104
79
91
80
104
85
88
89
98
80
92
108
76
84
83
95
83
74
97
71
78
93
93
78
106
101
71
108
79
99
99
75
99
94
70
96
78
77
72
79
94
78
107
102
108
103
107
100
78
107
95
91
78
71
79
101
91
77
70
83
86
105
98
83
80
106
98
106
74
91
79
96
109
91
77
76
84
90
84
104
78
109
99
95
80
99
76
107
75
88
78
107
89
74
86
109
94
83
71
105
77
71
109
71
88
70
84
88
76
92
86
83
108
95
84
89
85
72
92
107
98
94
93
77
104
79
79
82
77
105
94
90
93
88
89
97
101
81
85
106
84
86
88
100
70
82
107
107
99
96
95
106
87
95
75
88
92
105
76
105
109
76
79
71
83
104
83
72
70
98
75
81
92
104
98
83
78
70
71
93
107
81
75
106
108
82
73
93
91
109
86
90
70
107
105
95
88
109
100
99
105
90
91
101
92
82
85
88
106
99
97
85
86
92
107
106
89
89
87
74
94
94
92
93
72
87
85
106
90
88
76
106
88
104
80
86
101
108
97
100
76
81
73
93
90
89
77
83
108
74
92
97
85
75
103
107
99
88
74
105
75
72
90
93
89
86
104
85
93
93
93
101
106
87
86
93
105
87
105
99
86
102
104
82
81
83
71
83
95
94
97
83
106
87
79
85
70
90
75
105
109
86
90
70
86
71
96
99
82
88
89
100
87
84
101
99
96
87
91
94
108
81
73
88
70
83
75
98
94
109
98
74
70
95
71
92
87
87
104
89
108
106
82
94
103
94
73
86
100
87
83
82
75
104
107
72
97
85
77
90
97
103
93
89
94
104
109
89
77
104
70
78
81
94
103
80
103
74
76
99
91
75
72
97
106
109
79
84
98
109
85
95
103
72
91
85
87
81
83
108
88
89
90
99
88
100
85
106
93
90
103
96
95
91
98
99
75
102
76
99
73
99
100
88
80
96
109
102
104
105
106
102
88
92
90
87
89
92
95
100
99
91
73
95
79
94
80
78
100
108
90
102
78
87
90
94
100
78
90
101
88
82
106
94
77
71
97
106
108
93
83
79
103
104
107
88
90
77
75
84
79
87
99
84
105
80
70
95
83
99
107
97
73
90
90
100
95
107
85
76
73
81
89
90
99
104
109
73
106
80
75
85
106
70
76
93
82
96
81
94
101
103
79
98
82
90
107
104
102
88
78
78
96
86
106
93
78
82
70
108
94
87
103
71
71
99
80
89
97
85
74
88
98
98
79
96
99
105
92
75
82
94
102
95
97
101
86
96
95
88
95
88
70
98
87
108
101
100
85
73
70
95
106
95
82
100
107
100
76
97
94
84
92
77
82
72
101
86
76
100
88
72
95
70
90
88
92
91
108
90
83
84
82
96
81
98
70
100
82
93
109
80
72
83
106
84
84
79
98
80
85
72
96
75
71
77
82
107
102
85
84
109
83
107
75
71
78
89
76
76
101
108
78
96
75
81
93
76
108
71
97
101
88
101
95
96
103
93
94
81
100
97
93
84
101
76
74
107
73
77
78
74
91
88
79
79
94
85
94
109
74
109
99
75
94
90
109
89
78
86
78
91
79
87
79
105
72
81
88
101
76
93
82
102
77
89
72
101
91
87
107
79
77
83
86
107
87
79
90
84
108
73
83
80
78
71
82
90
93
82
107
93
84
89
106
74
74
87
74
108
103
96
78
82
77
104
84
109
90
84
94
82
75
85
75
74
82
90
86
88
107
77
77
99
108
90
92
85
99
83
83
90
76
103
102
85
107
92
83
104
79
90
105
99
80
98
79
79
75
71
75
91
99
108
77
78
97
95
98
86
71
92
77
97
106
76
91
106
79
87
109
78
95
80
100
71
86
97
72
96
80
79
89
75
100
70
106
88
86
96
83
78
96
74
94
71
80
72
92
103
80
106
73
101
90
103
101
77
106
73
92
101
81
105
73
95
103
84
70
87
73
77
95
93
75
94
88
77
87
82
99
101
79
93
79
78
95
77
85
95
87
106
109
70
87
109
89
88
76
77
88
84
90
95
78
107
74
71
89
90
95
98
79
83
75
78
79
73
71
100
77
83
107
93
74
99
74
99
106
87
82
73
80
71
74
70
72
96
109
77
75
88
103
72
96
75
101
95
96
102
74
76
99
90
70
73
90
83
105
92
101
82
98
81
78
95
89
104
85
75
83
73
93
85
71
109
102
75
108
79
92
100
70
91
89
76
105
78
71
79
93
79
81
97
91
107
82
70
86
103
109
93
85
106
78
98
80
72
73
84
97
87
83
100
102
91
101
88
84
77
96
103
86
84
101
70
70
74
92
90
74
74
96
78
83
88
80
103
74
90
105
102
84
109
75
71
72
100
105
96
94
92
109
83
91
83
91
87
98
99
84
92
109
81
102
102
84
107
82
100
92
106
79
97
100
92
85
75
85
84
100
74
104
78
94
83
108
85
106
85
72
96
90
92
85
85
87
109
96
92
84
73
95
104
81
101
90
89
81
88
108
85
70
95
89
72
75
94
82
106
81
104
95
80
86
73
93
85
108
82
80
82
102
109
107
108
96
81
101
70
71
80
70
86
95
87
74
84
92
102
101
88
74
104
72
107
73
109
91
98
75
102
76
70
72
89
70
71
85
94
78
90
72
97
74
80
79
106
107
105
73
105
100
89
76
77
83
82
97
70
96
98
86
97
107
87
98
101
75
96
94
84
84
101
98
84
105
90
94
103
99
104
106
72
88
108
103
78
71
76
72
77
83
71
75
75
102
77
93
81
80
103
109
107
72
72
71
90
98
84
92
103
106
95
87
82
72
74
91
93
85
105
76
106
77
72
84
76
92
96
103
109
70
77
96
75
98
74
77
72
86
78
73
106
97
96
89
73
77
97
81
72
92
82
79
85
101
86
71
100
86
97
105
96
108
97
105
107
89
99
86
97
77
89
101
72
96
75
86
75
87
99
79
104
77
78
71
101
100
72
78
82
84
103
108
107
91
83
79
77
109
84
97
107
78
108
88
89
70
70
103
89
77
104
70
108
71
85
102
108
73
70
88
79
109
98
70
78
90
107
90
79
104
108
85
96
106
95
107
85
100
83
93
83
87
103
94
78
83
96
91
96
85
97
109
99
81
99
105
105
98
98
97
82
95
91
100
86
96
99
92
83
106
106
71
97
102
96
72
92
89
78
78
82
104
96
93
102
106
73
75
100
74
103
102
86
109
81
109
86
73
87
92
108
103
81
92
83
90
83
82
71
104
95
71
90
89
83
80
95
85
108
86
102
91
83
80
106
104
103
80
95
108
100
108
104
107
82
78
72
90
97
102
79
81
83
70
103
88
82
78
88
93
77
81
73
109
85
79
103
72
100
109
83
90
72
106
95
87
84
84
73
95
73
90
84
83
83
107
99
79
86
71
87
104
75
92
75
103
85
100
78
102
81
84
88
75
109
72
73
83
96
93
70
89
99
96
109
71
78
78
100
99
70
91
85
86
78
94
101
74
83
85
77
74
85
77
95
78
82
85
85
102
101
107
95
71
79
79
76
76
109
79
75
103
107
90
74
104
78
105
78
85
72
75
92
75
80
96
72
75
104
104
76
105
99
93
108
105
78
94
79
99
87
94
88
105
75
77
86
86
108
100
104
73
99
86
93
73
106
77
91
100
70
83
78
107
83
83
84
88
72
103
79
107
108
83
107
89
80
106
96
79
95
87
89
93
101
87
70
94
100
93
72
86
76
93
83
93
99
109
73
84
91
81
100
101
92
79
107
88
106
98
105
83
96
90
107
90
100
84
73
72
77
70
78
84
107
70
99
87
102
75
81
84
97
100
86
97
88
72
73
102
96
94
89
76
94
70
108
103
82
87
76
71
109
106
70
108
81
78
109
88
105
86
109
73
97
104
100
70
71
104
78
74
73
92
80
79
73
81
100
78
103
86
87
76
77
79
104
86
81
109
75
72
102
100
100
82
100
101
95
109
97
109
103
85
80
102
102
103
81
76
93
92
81
107
100
78
76
103
108
99
72
107
107
96
76
102
72
80
96
91
79
101
95
89
71
70
82
75
90
106
87
95
85
107
82
100
106
70
106
96
98
83
88
88
78
88
99
109
87
99
80
83
92
87
80
90
109
78
89
98
70
88
106
75
78
83
89
75
88
100
96
76
105
109
72
101
100
103
92
87
98
74
97
99
102
106
84
98
104
108
101
101
96
106
90
86
78
107
103
87
87
79
85
106
106
97
104
72
76
94
70
102
73
93
109
100
84
79
75
104
73
105
92
83
81
104
104
90
78
76
91
104
79
104
73
73
102
73
73
74
79
76
89
88
76
85
99
95
104
78
86
108
80
85
80
84
105
81
83
102
85
86
101
70
96
86
77
75
98
83
106
100
86
90
102
103
83
106
99
106
96
94
101
102
93
71
104
80
71
78
107
73
77
72
78
105
89
98
71
87
89
103
83
92
103
88
100
82
77
107
102
103
109
72
102
86
88
96
109
103
77
70
97
101
76
98
92
81
76
108
90
93
90
78
109
76
90
109
91
96
99
97
75
76
95
91
83
108
80
103
77
89
89
98
108
105
99
77
106
86
79
99
83
93
76
87
103
91
89
106
91
107
93
84
74
75
77
80
91
104
86
93
99
86
84
97
108
85
106
105
93
88
91
87
76
87
72
84
89
80
106
94
93
98
75
83
84
82
96
102
86
74
98
89
84
86
78
84
97
88
81
109
103
71
71
73
92
76
94
106
76
77
95
82
105
93
85
94
95
75
97
94
93
74
76
76
98
106
102
83
92
100
104
74
87
108
101
81
75
74
70
83
95
73
102
109
77
76
106
86
70
85
70
71
103
88
84
85
76
80
70
109
92
104
78
95
77
101
107
70
98
82
103
95
106
92
72
96
83
87
92
91
94
72
80
83
109
77
81
85
98
73
84
91
74
77
76
93
90
99
107
73
72
101
83
85
109
86
100
74
106
94
105
84
105
84
78
103
85
79
109
92
77
70
89
84
93
105
82
76
77
103
83
73
101
73
96
86
89
95
84
100
82
105
98
106
102
89
90
93
73
103
102
81
108
85
85
89
77
77
88
91
78
103
76
87
74
103
87
106
101
103
78
94
108
97
94
108
102
95
90
85
105
94
101
77
87
80
72
105
82
81
102
83
70
101
109
75
78
88
88
96
106
102
91
103
87
100
79
91
87
70
71
94
83
107
97
103
87
86
89
101
101
86
91
75
100
96
80
108
73
83
74
72
95
92
91
72
92
99
99
87
100
70
89
73
105
93
100
72
83
70
106
77
93
106
96
76
96
95
107
99
108
87
95
84
84
97
102
96
81
103
83
79
90
104
87
86
83
94
76
80
107
82
73
88
106
95
109
93
75
84
79
103
78
102
77
97
97
78
83
88
80
70
71
99
83
90
83
92
87
85
83
102
79
81
71
102
77
91
106
103
91
86
92
73
71
71
93
97
71
73
84
87
97
98
95
100
86
85
91
83
103
90
103
82
96
75
100
72
101
80
71
105
75
77
74
72
104
74
79
108
85
99
103
78
82
81
75
82
91
74
88
108
82
76
80
109
77
104
87
86
90
108
83
100
104
105
104
93
72
87
75
98
107
85
85
109
109
109
82
76
99
95
90
79
73
101
72
71
95
96
82
103
101
97
72
88
100
106
72
95
87
70
72
74
74
109
94
75
73
101
85
91
77
78
73
107
83
108
93
95
85
91
99
92
100
78
92
76
94
72
96
79
101
87
72
100
81
85
97
81
103
89
108
103
105
86
85
97
96
106
97
78
103
73
75
77
90
99
104
81
79
75
97
93
91
90
81
89
88
108
104
70
70
73
103
79
104
86
101
88
72
77
98
83
85
98
90
105
84
72
99
70
77
108
75
96
96
103
92
89
80
90
73
75
70
109
70
107
97
80
90
89
76
78
96
79
80
79
95
80
100
77
79
108
106
97
85
105
77
102
97
99
80
78
77
87
79
93
104
100
92
75
100
84
83
85
85
106
71
94
76
107
105
74
98
82
102
75
97
103
96
80
95
88
104
82
84
107
106
73
87
74
89
87
99
104
77
83
72
107
98
72
87
98
84
71
78
73
79
75
93
99
83
75
72
71
88
109
78
86
78
97
89
100
81
76
95
109
75
86
104
74
74
94
105
84
91
92
73
96
79
71
98
84
78
80
106
97
81
103
106
81
84
85
79
83
75
82
87
108
76
79
78
80
86
102
82
90
81
81
75
80
70
89
72
75
103
72
102
102
82
96
106
84
91
101
96
102
88
89
84
93
80
103
74
93
86
90
98
99
91
102
70
89
82
71
78
72
104
73
92
77
92
72
92
78
91
98
86
70
71
105
95
79
96
93
76
80
83
73
96
88
99
76
72
90
77
99
70
106
89
85
107
86
109
96
73
72
76
98
103
83
80
90
101
91
75
80
83
82
84
74
94
89
72
73
75
84
103
92
86
97
88
91
93
74
72
78
104
97
87
102
92
92
91
108
81
89
81
98
105
107
89
79
106
93
82
103
101
70
86
73
71
86
87
107
72
81
106
83
107
82
107
87
109
73
73
104
106
88
107
90
100
106
83
71
77
85
82
100
71
81
76
76
97
81
101
100
109
98
93
88
96
98
88
84
98
83
89
76
95
72
88
71
77
79
105
74
102
80
87
82
104
77
80
108
100
82
83
88
108
94
96
99
72
98
87
100
83
90
83
106
73
90
80
107
76
107
91
72
79
102
97
79
90
73
75
73
79
79
80
102
85
108
99
93
83
82
87
105
103
85
88
88
104
102
99
101
96
86
97
89
102
105
97
85
83
109
108
75
92
107
92
94
71
109
87
95
97
73
104
98
103
85
79
96
108
91
106
85
107
87
108
109
101
103
77
99
92
74
91
98
73
92
95
88
75
73
75
80
74
87
90
86
99
74
104
88
100
82
100
99
91
103
83
92
90
96
80
97
101
88
72
79
103
74
90
84
90
95
103
79
93
78
102
79
107
99
108
106
98
82
98
80
97
101
71
86
86
93
71
95
70
102
108
96
70
103
92
74
74
72
75
102
76
99
107
84
87
104
90
77
108
84
107
106
77
82
94
84
88
78
76
101
103
77
70
70
77
72
78
75
91
107
104
108
101
89
82
93
94
98
74
105
99
96
87
90
70
86
74
84
74
106
102
83
87
92
70
81
94
79
102
85
79
81
102
73
80
102
98
90
98
81
92
86
79
85
70
104
102
80
107
103
74
97
78
73
95
108
77
74
71
100
103
73
84
89
83
109
71
106
75
75
105
92
105
92
87
107
105
85
91
81
87
78
81
77
82
103
79
101
98
103
97
71
102
96
76
84
97
104
81
70
101
97
84
108
72
99
101
83
79
103
70
104
88
103
79
83
84
85
103
78
77
74
108
71
109
96
77
81
87
106
85
82
73
82
82
72
98
83
79
85
104
72
103
93
78
108
76
78
76
108
103
104
87
74
72
84
91
91
87
73
78
83
108
101
94
87
93
105
78
76
94
88
85
86
102
74
87
84
71
100
105
74
70
74
79
94
84
71
104
103
76
108
84
99
102
72
76
105
91
87
92
94
82
93
109
91
99
109
101
70
81
77
75
96
101
92
109
72
73
104
84
86
90
73
107
82
91
98
100
86
109
73
100
73
107
108
104
102
109
70
96
92
91
74
90
103
76
104
74
95
95
70
72
79
91
73
99
81
74
76
109
104
75
87
79
70
72
108
87
71
85
78
70
85
99
83
95
85
107
100
109
83
70
90
76
74
93
107
106
86
109
109
103
93
101
98
76
107
107
109
80
85
83
93
105
73
105
103
81
76
106
88
102
92
94
99
94
103
97
88
106
90
82
78
91
71
107
98
91
73
106
96
86
106
95
74
96
104
71
103
72
91
88
93
85
82
87
98
80
94
94
79
83
78
74
87
104
85
92
86
77
73
102
93
70
101
88
101
100
90
99
74
108
105
71
83
75
77
88
78
97
79
94
105
75
73
85
103
94
94
81
103
81
81
78
83
82
102
104
80
99
71
79
81
94
80
101
97
87
93
106
88
106
74
87
86
84
82
82
78
94
92
82
77
71
91
76
75
105
77
101
96
96
71
105
91
70
79
91
79
82
106
109
88
105
71
82
93
70
75
107
101
87
78
79
71
88
94
94
84
92
83
104
88
96
90
97
81
74
70
104
79
82
84
81
93
73
86
71
86
103
83
86
108
89
108
104
93
99
98
102
79
73
70
89
78
109
89
89
75
108
109
102
71
105
99
77
104
79
79
94
75
97
81
84
107
76
78
108
80
88
102
106
108
106
87
72
90
86
82
104
96
83
76
107
79
79
80
91
72
77
98
95
97
75
103
109
72
97
76
85
104
95
100
82
98
87
102
108
77
83
70
85
97
104
91
73
80
83
73
73
70
90
96
73
91
94
84
80
70
79
78
89
100
97
75
72
97
86
76
86
71
85
102
105
101
73
106
94
81
85
88
104
73
70
103
101
71
89
96
103
75
103
108
81
77
77
83
74
83
89
95
95
71
83
80
108
109
104
97
90
99
109
107
104
82
106
105
91
85
76
83
96
88
79
87
84
90
84
100
106
109
96
105
108
78
101
78
77
80
109
97
79
94
76
92
89
105
109
76
107
94
103
109
100
92
90
109
108
108
109
95
78
90
89
80
88
83
84
103
102
103
103
104
91
105
80
98
74
85
71
98
93
74
107
79
91
79
109
87
79
91
104
90
71
79
86
86
98
71
79
98
109
98
102
96
96
109
76
100
108
70
89
74
88
96
79
103
109
99
90
102
70
94
109
94
100
79
79
106
81
89
70
73
92
80
90
103
84
97
109
76
80
94
74
107
109
72
108
86
98
109
88
88
89
109
93
91
103
104
98
75
102
106
81
91
88
105
76
87
72
86
85
105
75
90
74
79
101
84
72
93
97
72
71
87
96
81
79
106
94
90
81
99
73
74
97
88
108
102
91
102
75
100
107
107
96
101
97
85
85
89
109
82
75
90
88
89
75
106
91
105
106
70
75
81
82
80
109
72
87
71
103
70
79
106
80
106
86
109
88
77
88
98
83
71
80
83
81
80
81
79
98
98
83
100
105
85
89
85
102
83
72
99
72
102
90
88
75
94
76
82
78
95
93
109
72
82
72
76
101
83
91
73
83
91
73
91
90
95
93
72
107
81
88
107
95
109
85
79
92
95
75
77
84
83
107
98
70
93
91
93
81
74
81
72
86
78
100
108
102
87
87
82
84
90
103
87
100
77
80
103
99
109
75
94
105
97
75
90
101
94
104
77
87
109
99
107
76
90
75
86
85
101
79
106
105
102
93
78
85
85
83
87
73
72
84
108
85
81
101
101
91
103
104
93
102
100
81
98
100
102
79
82
88
106
101
105
75
78
90
80
108
85
70
88
85
105
102
79
80
76
105
106
82
103
107
108
71
95
106
86
94
108
80
80
70
84
105
94
97
88
85
94
88
109
88
89
87
70
88
81
83
88
70
106
97
94
89
99
97
102
80
71
90
107
86
79
95
76
82
106
75
109
72
88
82
77
106
75
80
88
107
104
101
70
94
84
81
76
98
82
100
97
73
92
89
99
73
88
100
107
74
93
98
94
105
85
104
93
92
78
87
96
95
84
102
87
103
73
73
81
85
96
80
72
70
94
99
92
104
82
92
103
103
102
101
81
89
86
76
78
86
89
76
109
100
102
95
89
106
73
105
109
100
109
70
91
94
84
94
78
84
85
104
82
82
78
84
88
95
83
70
70
96
93
88
94
106
93
87
94
71
99
81
88
109
83
85
75
91
79
100
81
85
75
78
90
74
76
88
106
109
90
77
102
81
73
74
101
80
106
86
108
86
95
98
98
81
95
109
70
91
71
108
78
75
90
96
105
81
97
104
86
97
102
81
79
90
85
90
73
104
85
93
101
86
94
107
75
87
100
87
101
95
75
86
83
86
106
85
70
77
84
100
102
92
109
90
95
83
91
105
89
88
85
99
104
104
88
100
92
105
103
90
81
103
91
75
105
86
76
78
96
88
70
85
89
102
104
89
104
100
73
70
95
97
99
88
109
76
76
94
83
93
75
102
97
83
96
98
97
106
87
82
73
104
103
82
103
71
78
100
80
93
103
97
106
106
70
93
75
82
99
104
106
77
94
84
100
107
106
75
105
99
101
73
72
93
102
75
72
87
96
78
97
101
70
106
98
85
71
88
84
74
77
74
79
71
72
99
84
86
72
71
74
105
75
84
109
97
76
80
84
101
93
100
90
86
86
82
103
80
70
100
79
107
73
77
84
107
90
75
72
101
75
93
109
76
107
81
96
74
72
90
83
106
70
96
99
78
86
104
97
84
98
78
100
87
79
72
71
91
100
77
71
104
99
77
97
91
77
98
81
106
107
88
101
94
98
81
91
70
78
93
96
73
75
88
84
100
88
75
106
85
77
80
91
95
94
88
93
96
89
87
72
103
76
99
90
97
82
96
100
86
72
88
101
71
106
89
85
99
108
103
92
99
70
76
99
90
95
77
99
73
85
79
70
106
92
81
99
107
78
92
85
93
98
97
78
94
71
105
104
84
98
107
77
83
86
105
87
96
76
92
74
103
92
90
81
74
83
108
102
107
85
109
94
76
76
88
100
77
105
105
77
86
107
87
76
86
70
104
95
91
94
86
90
82
84
96
74
105
88
84
92
83
79
91
79
92
95
94
72
85
73
72
101
99
102
76
83
99
78
88
99
97
100
97
83
89
70
74
90
93
107
95
86
105
94
87
73
99
82
90
96
94
70
102
102
73
100
72
97
76
85
90
76
83
87
96
77
102
73
71
87
95
77
103
106
78
87
104
106
73
86
100
78
104
89
100
98
73
84
78
70
87
99
92
80
88
94
88
88
103
93
79
91
103
102
100
98
105
109
95
107
96
99
85
80
107
90
89
71
99
79
99
99
93
89
72
80
74
106
75
84
77
92
75
100
101
85
92
77
84
102
106
92
95
88
100
104
102
88
109
95
94
101
89
78
86
71
78
109
95
98
72
89
96
84
82
76
96
91
105
106
77
90
83
78
93
78
97
101
75
100
73
72
84
101
103
104
90
108
92
85
88
72
103
72
80
109
92
74
82
88
106
99
109
74
82
87
75
92
76
103
88
109
92
108
99
80
109
97
96
97
108
74
93
73
73
95
92
72
90
101
73
83
104
71
76
78
109
89
105
99
70
101
94
100
94
90
76
77
76
90
90
78
78
90
102
79
101
95
77
101
99
79
78
100
98
86
74
77
86
90
78
75
70
105
84
104
80
106
79
77
99
81
102
98
104
79
75
106
91
97
100
107
87
71
89
92
88
96
79
88
109
100
84
75
85
90
84
74
89
108
100
103
74
96
77
93
76
80
99
97
76
99
71
106
78
77
105
107
99
77
106
102
72
102
105
83
82
96
76
89
89
104
106
76
90
109
79
88
98
84
103
77
103
103
102
92
105
105
96
72
81
93
92
72
81
96
78
92
77
100
70
102
88
102
75
92
98
90
91
91
88
77
79
70
76
108
83
86
95
99
92
92
84
72
77
109
71
98
91
78
102
108
71
89
87
102
85
86
74
93
91
109
88
98
99
106
76
105
100
107
97
99
102
94
84
94
85
86
83
75
80
96
86
81
82
89
77
96
89
75
75
72
109
103
73
107
107
76
86
80
82
97
85
105
102
71
80
72
84
83
84
101
93
83
92
75
94
79
99
76
78
82
92
106
106
88
100
72
102
82
82
88
85
104
93
78
107
71
88
84
73
75
74
71
97
94
81
75
74
74
87
75
94
99
77
99
74
97
80
89
70
93
89
89
109
97
81
80
103
101
100
108
109
103
85
90
101
82
99
71
96
91
99
83
87
72
94
107
109
81
93
78
89
84
105
107
98
92
88
105
80
97
109
86
81
70
70
84
81
71
108
81
70
73
95
85
91
79
96
106
106
90
75
79
80
96
109
78
107
88
82
79
71
85
90
76
90
89
92
94
109
108
108
87
76
93
97
90
88
80
82
80
106
97
107
85
90
72
106
98
82
86
103
91
100
70
107
108
91
87
80
88
81
81
105
91
108
95
91
81
78
84
77
93
102
104
92
78
97
101
82
95
101
93
96
78
87
79
105
72
107
105
80
91
76
104
77
99
109
78
85
97
79
83
80
105
83
95
86
75
83
86
76
93
85
70
99
103
96
109
107
79
105
103
70
93
95
70
103
73
78
74
101
84
89
92
107
77
84
85
106
101
105
108
80
76
105
104
83
85
102
107
97
80
78
104
74
72
106
102
96
108
88
100
101
89
78
88
102
103
96
99
103
74
75
95
87
77
91
92
109
82
106
71
107
85
74
76
98
90
93
86
95
84
75
100
84
95
92
86
82
80
102
72
85
76
81
102
88
102
73
98
83
85
84
73
98
77
77
84
88
93
104
78
108
89
71
106
99
104
84
71
86
97
87
101
85
89
107
106
92
105
100
89
76
94
92
83
93
104
102
104
76
103
98
79
96
99
75
108
89
75
109
98
74
88
75
74
94
83
80
82
81
108
108
105
105
85
81
106
93
78
87
88
100
106
109
73
73
82
88
101
78
88
81
88
71
87
98
78
88
97
105
103
73
73
105
84
81
82
101
72
97
87
78
90
106
93
87
83
98
102
71
99
74
79
70
73
92
84
92
74
76
91
70
72
75
70
75
71
92
109
102
77
97
75
92
89
101
80
73
109
88
95
70
94
70
72
93
76
97
73
80
77
80
97
71
70
88
93
97
85
106
78
101
105
101
107
97
99
70
91
91
97
101
101
77
96
97
92
94
73
71
101
87
80
103
83
76
81
71
85
76
100
100
77
98
83
78
77
109
88
100
86
92
92
80
89
70
78
84
89
73
97
76
72
89
74
86
73
100
72
104
102
84
76
81
107
85
83
107
74
79
73
103
89
77
89
73
89
71
99
109
80
102
76
83
73
94
100
103
83
105
84
84
79
97
102
90
70
109
98
84
107
80
86
71
108
103
94
73
78
90
92
94
89
92
106
81
98
94
101
73
73
73
84
90
82
83
106
85
71
99
80
98
86
96
70
93
79
80
75
103
97
101
92
95
77
84
81
104
74
97
70
77
75
109
81
90
102
81
103
100
79
72
108
108
101
71
82
80
90
72
97
91
104
81
73
87
98
94
100
79
97
78
71
105
97
76
98
100
100
100
70
103
84
74
95
106
70
101
90
89
93
105
80
78
85
93
107
85
90
82
105
87
72
86
87
79
108
88
104
73
82
100
86
92
104
73
88
109
83
98
92
70
89
82
95
95
103
91
75
108
108
72
80
86
101
97
87
95
98
71
90
72
89
81
72
101
74
87
104
84
83
85
99
89
92
106
79
78
101
97
97
105
79
87
91
94
73
79
102
95
108
98
105
73
81
91
75
73
89
106
102
95
101
71
77
98
96
82
103
76
73
72
92
94
77
89
103
71
100
87
93
73
75
73
85
101
74
73
88
89
79
99
107
95
83
80
91
79
99
98
80
87
82
80
101
99
93
76
71
72
79
75
75
109
70
84
77
83
101
77
103
76
83
74
95
99
108
88
76
90
87
105
90
90
72
105
99
70
103
88
104
105
104
105
97
89
100
75
106
76
88
101
87
82
85
79
89
99
88
70
89
99
82
105
76
98
75
98
95
89
75
71
101
74
97
90
79
71
103
101
99
78
85
90
81
108
77
98
73
87
79
84
73
80
86
88
94
73
83
85
104
83
73
72
108
108
96
86
100
86
70
99
89
91
90
84
92
88
75
106
81
80
97
104
77
75
90
71
105
86
72
72
79
109
73
74
93
70
87
84
89
79
80
85
107
91
73
74
97
81
95
96
102
85
78
99
108
83
78
86
93
82
98
100
76
77
83
102
73
104
77
102
77
97
79
99
98
108
89
86
71
92
105
108
107
103
95
85
71
105
98
85
89
99
82
105
86
101
95
84
72
106
97
74
80
76
98
85
70
88
82
86
71
91
73
86
86
76
74
93
102
84
94
76
86
91
70
102
94
109
85
84
105
101
101
105
76
81
105
82
86
70
83
83
88
77
104
86
95
94
72
85
104
76
90
98
99
98
95
109
107
100
94
109
93
88
88
99
79
86
76
76
83
79
86
77
107
90
76
83
87
77
90
75
70
81
102
88
89
86
94
108
70
106
80
89
91
84
74
95
105
70
91
97
108
74
106
83
72
83
78
79
94
103
94
88
71
108
106
86
96
97
105
108
78
79
100
86
76
96
107
87
99
102
79
82
82
87
95
103
70
87
95
96
75
70
102
76
108
76
94
108
103
91
90
93
92
92
83
101
104
100
83
73
93
88
86
78
108
78
93
71
86
70
101
95
103
106
80
103
84
98
83
74
86
106
103
70
96
80
99
70
70
96
82
78
78
91
89
79
75
104
76
84
103
73
90
100
81
81
102
104
104
76
87
103
95
96
106
89
81
91
102
81
94
93
104
70
79
71
81
91
102
108
77
94
106
87
109
102
74
101
87
105
79
92
107
84
87
93
106
76
87
70
75
93
73
82
86
97
79
101
92
75
78
107
94
77
78
96
101
78
73
109
98
88
74
74
72
89
81
71
70
96
84
96
73
83
95
104
106
87
95
108
84
71
75
99
104
80
100
109
100
93
79
106
73
102
89
108
84
86
107
96
88
101
101
97
74
83
103
85
101
95
70
84
95
87
100
70
108
104
92
109
81
105
84
83
75
91
75
100
105
107
93
87
79
107
85
73
77
101
74
83
72
82
85
94
79
75
98
92
88
102
93
104
84
74
95
96
104
70
89
98
102
71
104
85
99
81
74
89
90
105
72
82
73
88
84
97
107
98
108
107
94
103
104
94
101
82
81
82
80
97
82
84
98
100
76
105
76
105
100
88
89
86
87
72
98
89
74
93
74
93
107
101
92
78
100
88
108
103
89
71
91
98
71
84
95
96
80
83
90
89
92
79
90
86
74
103
97
85
87
98
86
76
94
74
100
74
90
109
81
107
88
97
73
98
104
73
108
100
100
83
86
98
90
109
85
103
103
103
96
99
101
97
94
95
78
104
93
106
97
70
100
84
109
96
99
89
84
108
73
72
106
74
102
76
101
98
106
98
103
86
86
84
105
90
90
94
83
89
102
71
82
97
93
75
89
107
95
94
75
84
78
99
71
95
75
70
85
86
74
95
105
86
75
88
102
107
82
96
84
76
105
89
92
105
101
103
91
82
86
75
94
105
91
78
102
82
93
106
84
98
75
101
94
70
103
87
82
78
78
95
74
74
77
88
104
75
90
106
108
85
97
86
85
91
104
98
101
108
85
86
96
93
94
70
109
103
98
73
77
74
94
89
108
106
82
76
70
81
77
90
92
93
102
88
103
83
77
77
92
108
97
99
81
79
100
104
87
104
100
85
104
71
106
87
99
100
104
100
109
106
87
72
74
97
95
81
77
80
98
71
84
106
75
73
88
89
91
108
91
73
85
101
83
102
91
88
86
80
79
74
94
86
102
92
95
89
82
81
70
91
96
74
101
87
106
71
84
98
109
90
90
106
77
103
77
70
103
70
102
71
87
100
104
102
92
86
90
86
105
79
107
106
85
101
102
98
77
103
86
74
104
105
92
100
108
92
78
88
79
95
74
104
88
74
76
97
87
101
100
95
83
85
84
87
99
103
96
99
86
103
78
90
102
99
104
94
90
75
96
106
76
108
91
100
75
94
97
71
81
107
101
108
103
89
88
82
88
89
98
75
108
72
75
81
78
70
103
73
71
78
89
78
92
85
73
105
78
79
96
88
97
94
100
101
95
92
103
97
86
91
101
81
103
106
94
71
80
107
104
91
100
83
105
84
97
82
83
105
74
100
97
77
71
79
81
107
82
102
99
86
83
76
96
77
71
77
70
100
91
82
84
94
71
91
73
90
89
83
90
92
72
102
83
101
107
94
109
101
96
102
105
72
97
70
100
71
92
97
92
81
89
91
82
90
98
70
80
74
86
103
77
96
94
109
103
105
77
74
88
92
89
86
92
80
95
87
89
96
94
101
88
70
73
77
107
85
83
100
72
107
71
79
77
79
102
89
84
72
77
93
97
87
101
100
73
85
100
96
86
79
109
74
97
105
75
98
95
73
108
109
70
94
100
99
105
73
79
81
91
98
83
101
73
94
108
81
99
95
106
73
100
109
97
88
87
76
80
96
93
77
108
88
108
82
109
99
82
76
104
87
91
103
95
99
71
73
71
109
72
79
80
74
106
72
82
103
91
86
94
88
85
106
82
95
74
87
82
95
88
74
75
81
101
72
89
95
84
89
76
95
80
92
70
107
73
90
88
86
109
103
86
81
105
79
104
104
104
93
83
86
106
74
95
104
104
108
89
72
88
77
100
97
85
86
84
99
80
99
84
103
84
88
104
101
86
92
77
107
92
77
80
98
81
109
84
100
102
92
88
104
74
109
96
81
100
85
74
99
88
90
84
80
105
80
93
74
71
98
97
106
105
94
73
73
84
98
106
84
108
70
108
109
74
98
78
88
87
90
80
75
105
95
74
98
100
103
91
90
90
95
76
84
77
97
102
84
84
89
97
98
92
92
79
72
89
75
104
86
86
84
79
75
74
98
76
93
99
70
84
75
95
78
86
80
88
109
71
82
72
106
105
76
86
70
103
105
71
72
92
83
81
83
85
99
83
100
84
73
81
76
70
93
95
108
103
95
76
74
109
109
97
78
106
91
97
74
94
72
84
98
84
70
95
80
83
74
78
91
81
101
108
97
91
98
106
83
71
73
86
72
86
91
102
92
92
71
78
98
90
93
102
96
71
97
72
106
74
81
80
74
82
98
109
70
81
73
79
106
71
86
81
88
75
77
104
101
104
80
101
78
93
103
96
74
84
82
85
90
96
80
76
78
97
80
107
82
98
81
78
105
77
77
90
73
77
91
71
79
108
101
77
100
70
95
96
81
101
106
102
86
103
71
95
81
93
87
95
77
85
107
81
89
74
88
92
75
90
109
98
84
81
104
78
94
101
85
86
76
97
72
98
80
85
94
100
82
102
95
88
88
106
95
70
97
103
93
93
87
100
75
74
76
80
71
81
75
98
97
91
107
80
78
90
71
92
100
81
82
84
104
95
82
105
108
101
97
98
77
109
100
74
76
78
77
103
99
78
100
85
106
103
102
90
98
85
92
83
99
94
88
95
89
107
91
98
84
95
74
101
80
109
90
100
105
79
97
88
75
84
96
94
106
105
70
87
94
84
70
73
105
85
84
87
75
85
107
85
85
75
107
95
101
85
105
81
106
108
72
89
97
100
79
77
71
98
74
95
104
70
77
96
79
83
102
92
78
109
107
74
88
82
84
71
102
100
90
99
79
78
72
84
91
85
97
98
90
73
83
107
72
92
98
87
101
99
87
94
82
74
98
97
101
108
78
87
89
107
84
89
96
109
75
72
75
80
95
77
107
79
71
81
104
94
84
86
82
98
102
86
71
109
72
98
76
96
104
70
87
89
80
107
108
72
104
85
79
77
88
78
98
108
72
90
79
75
83
109
79
75
75
106
108
109
94
102
93
71
90
84
72
87
85
81
101
104
104
83
95
99
92
102
70
71
102
79
92
76
103
100
85
92
71
91
106
91
91
83
95
104
108
81
108
109
83
107
105
76
106
82
77
106
92
91
81
81
87
94
104
72
105
108
90
101
81
82
105
86
104
91
83
76
71
93
82
74
106
90
105
93
94
106
72
75
87
95
89
97
77
97
83
80
96
99
78
87
73
78
73
71
83
92
81
91
74
72
91
102
99
108
84
74
108
83
79
70
109
88
87
71
88
94
109
83
100
106
75
90
88
94
98
94
86
80
81
84
78
74
103
90
77
106
108
100
109
101
107
74
103
104
106
93
70
71
109
106
70
89
72
109
77
84
75
90
81
85
75
95
106
91
102
102
96
101
79
90
80
80
76
104
76
77
76
89
105
91
76
84
109
105
108
73
88
103
94
107
106
93
78
102
102
75
80
105
85
107
102
93
102
92
105
80
76
73
83
107
104
73
99
106
89
104
72
101
98
86
81
98
91
87
84
70
74
83
109
92
83
94
73
109
109
90
108
73
80
107
96
100
92
99
88
76
83
88
76
90
98
99
93
87
107
106
83
105
71
105
92
87
82
100
88
81
88
88
91
75
71
91
75
108
76
80
83
73
90
79
79
103
80
85
81
106
99
96
84
95
100
94
94
105
107
79
91
106
92
103
79
95
105
73
108
82
104
88
78
98
78
103
91
109
84
92
71
97
74
72
70
88
73
75
107
90
85
85
97
79
91
104
80
101
70
92
107
86
80
99
79
78
88
87
86
92
79
80
93
79
72
82
75
83
103
70
107
91
80
88
83
73
76
90
78
84
103
79
79
82
109
97
104
70
95
87
81
75
88
105
84
106
77
78
73
96
109
81
86
92
93
79
89
103
87
92
73
77
107
95
105
83
70
83
71
82
107
103
84
99
104
103
100
74
82
108
73
104
75
91
91
84
83
90
107
98
84
80
88
87
99
109
89
108
84
71
92
89
85
86
79
75
86
107
93
81
102
109
99
91
82
83
83
76
106
97
97
82
108
93
76
99
102
73
79
107
94
86
81
75
83
70
106
76
74
91
79
84
82
95
79
80
89
99
70
91
98
76
74
94
79
83
109
89
92
75
107
88
108
80
92
97
104
86
92
101
84
80
105
70
100
107
77
88
88
90
108
106
92
91
88
71
91
97
91
88
85
92
84
100
102
86
95
83
81
95
102
79
101
75
84
92
102
98
108
82
95
72
93
89
87
86
97
84
82
97
94
88
74
74
84
79
93
78
88
88
104
87
80
106
84
82
96
89
88
90
93
87
71
93
80
71
92
77
78
78
107
90
93
90
82
70
97
80
104
106
80
73
76
87
90
109
105
79
93
107
80
84
88
102
103
97
87
84
81
81
102
92
95
92
81
86
77
97
76
88
103
96
78
77
85
103
84
96
109
80
75
106
96
81
101
97
72
76
96
73
81
96
75
79
92
104
75
83
108
82
93
78
83
82
84
109
76
88
77
101
95
95
105
71
72
96
100
101
88
71
92
78
81
91
99
86
100
100
96
74
86
88
83
83
82
71
88
81
104
72
102
105
103
99
97
106
70
96
92
108
106
104
75
98
83
83
71
74
71
97
83
91
107
85
79
102
103
79
99
72
89
104
87
87
85
108
73
98
84
83
78
70
107
88
108
86
70
86
95
75
108
95
99
85
99
88
106
72
71
81
77
106
72
89
104
92
90
82
74
80
82
80
74
106
77
71
104
74
82
86
107
104
107
103
87
96
103
73
106
97
108
103
94
105
100
106
73
107
93
92
75
83
70
79
72
97
103
78
80
77
88
89
91
90
92
103
88
85
103
95
103
80
101
72
70
74
109
82
73
90
71
108
78
92
106
96
72
74
89
99
74
103
70
81
86
72
96
97
94
92
73
84
75
78
107
108
76
96
108
83
98
81
103
97
89
74
109
75
81
70
108
104
102
105
79
109
93
99
102
99
97
100
95
71
84
90
77
83
105
96
72
108
106
98
109
92
101
70
72
80
101
77
95
84
70
83
96
93
104
90
70
95
88
102
88
105
76
109
91
70
109
101
89
93
90
106
81
91
90
72
73
95
90
86
90
94
72
84
99
105
71
102
104
76
77
97
101
72
97
102
109
91
88
77
72
94
82
76
108
79
80
103
98
96
73
106
109
88
102
77
79
73
98
79
85
106
102
86
108
101
84
86
108
75
98
88
107
79
105
109
109
72
87
84
83
83
90
96
73
73
86
77
77
109
104
108
93
88
100
101
79
104
100
100
79
86
98
88
101
104
73
104
93
95
102
86
107
73
108
97
94
97
89
93
108
93
83
94
86
96
87
85
102
97
75
81
70
85
106
90
83
105
96
91
98
106
86
70
90
96
105
92
90
80
86
84
108
81
89
76
98
73
86
70
87
89
95
109
74
102
80
97
71
90
87
86
102
107
103
107
80
89
71
82
95
94
87
91
109
97
75
71
104
91
83
98
76
70
97
95
74
99
77
98
96
75
102
98
81
88
81
102
102
93
87
98
76
99
82
74
96
101
104
78
105
102
76
86
93
106
89
88
102
98
72
96
78
92
84
79
105
99
84
95
99
74
105
85
74
103
96
104
76
78
82
98
107
82
98
77
88
107
79
87
103
109
99
97
106
94
107
108
104
98
71
109
103
82
92
91
79
90
89
102
73
82
71
98
80
72
85
108
79
91
74
101
108
83
100
109
83
103
97
106
77
79
100
72
83
100
98
83
77
76
101
91
104
90
88
71
88
102
109
78
90
105
84
105
85
84
92
93
73
105
95
80
73
81
97
90
93
95
97
94
76
94
91
88
72
71
85
73
82
85
81
81
79
77
75
108
83
95
91
81
77
106
109
87
99
72
79
72
80
85
82
107
75
102
77
92
105
103
70
87
102
78
99
85
104
94
80
94
92
102
105
72
86
84
74
102
91
92
78
93
105
77
101
99
90
101
73
88
100
100
107
74
76
87
97
91
84
86
75
78
99
88
94
107
76
109
88
102
98
93
77
87
98
71
106
109
105
100
104
108
96
85
83
105
101
90
92
107
92
108
83
101
93
77
89
73
80
103
93
71
86
99
101
102
106
99
72
106
89
97
74
71
93
90
103
77
88
93
99
84
87
72
90
106
108
85
75
99
81
89
106
72
90
86
87
107
74
105
105
98
96
86
86
98
76
74
95
101
101
82
80
95
101
90
70
94
87
89
108
88
71
99
87
98
75
102
73
94
89
73
99
108
89
90
78
76
100
71
75
98
109
88
97
107
70
91
72
88
86
79
108
81
75
93
100
108
107
91
99
78
79
91
71
80
97
93
80
94
85
96
99
100
86
102
72
105
99
105
88
105
82
104
91
70
99
103
73
87
89
78
79
107
84
104
76
104
98
102
109
87
103
93
86
98
99
94
107
105
83
93
78
97
82
100
104
70
82
105
93
90
93
101
99
79
81
94
84
97
107
95
93
104
91
102
86
101
81
71
106
106
70
79
105
87
95
108
109
90
77
83
89
70
88
105
73
96
93
78
77
86
109
95
96
96
104
99
81
84
82
89
103
93
101
96
98
75
71
94
80
97
70
85
101
91
81
75
87
102
104
97
105
108
103
86
93
80
95
77
96
80
109
108
80
97
71
70
73
94
76
76
97
108
76
79
73
72
104
105
109
74
107
85
94
86
81
100
94
80
94
106
74
80
99
104
103
86
84
99
102
72
102
92
90
106
87
98
109
77
94
93
85
91
85
76
92
90
107
73
81
103
71
91
89
93
106
109
74
94
93
101
105
72
75
72
98
108
80
100
104
83
106
70
94
106
94
92
109
97
78
78
95
86
106
89
107
70
93
75
82
87
97
70
98
95
101
79
72
73
94
70
99
74
92
107
79
79
103
87
72
82
105
105
71
84
85
82
97
108
105
83
86
89
104
85
72
77
75
73
101
98
97
97
94
82
77
94
81
89
79
76
108
85
109
99
99
90
98
72
83
87
104
99
96
93
99
90
84
105
78
101
73
71
74
91
89
89
83
78
108
105
102
75
106
92
96
109
105
79
81
97
73
102
73
92
86
98
105
108
86
99
109
101
84
95
72
94
76
106
73
83
88
94
100
76
98
76
76
109
90
92
104
71
99
90
92
87
73
74
74
101
102
92
96
80
102
107
99
105
102
75
108
85
108
105
98
102
83
72
89
76
78
73
81
72
88
82
98
82
81
82
102
84
100
100
95
86
78
106
108
107
73
92
70
84
98
90
79
83
79
102
109
75
85
109
108
102
73
87
74
95
70
76
102
81
79
90
107
71
93
109
74
78
75
79
70
72
88
88
84
99
108
86
74
105
103
104
71
72
78
72
100
101
104
96
81
76
80
71
75
100
91
76
101
89
85
81
85
97
87
107
88
92
99
89
72
109
107
92
76
102
103
86
89
107
70
86
88
70
87
74
88
83
104
86
77
92
71
76
89
96
94
108
91
71
84
87
77
105
82
94
82
88
92
105
72
83
97
93
98
93
84
108
89
77
84
91
107
95
96
88
100
91
79
75
85
76
103
103
83
108
85
73
82
94
84
72
89
100
73
77
71
74
71
93
94
82
94
100
94
106
106
93
86
91
104
95
103
83
100
82
89
94
89
91
83
80
73
92
108
78
86
95
103
85
71
84
95
75
87
89
95
109
99
74
85
73
99
105
104
85
82
71
96
95
81
76
109
94
73
108
74
105
104
107
107
95
94
81
93
86
95
97
109
72
100
103
75
75
78
105
96
72
106
79
87
71
108
77
72
96
77
105
90
101
94
88
74
86
74
78
95
109
86
77
72
83
85
93
72
91
106
101
104
94
92
90
70
86
105
94
77
79
100
98
109
98
89
71
84
76
100
72
93
94
92
108
104
95
85
76
74
71
70
96
79
109
104
79
101
76
81
70
99
97
104
104
98
72
105
103
74
95
91
82
96
91
97
71
70
106
86
99
99
73
100
72
85
71
94
86
77
73
100
86
106
103
103
90
73
103
94
97
99
73
105
106
70
83
84
102
89
94
70
83
107
80
98
94
91
107
85
88
109
85
82
85
83
106
74
73
82
103
104
84
79
73
108
72
90
70
102
88
81
89
86
75
88
100
89
89
80
104
71
85
77
105
82
92
101
72
81
93
102
97
86
89
79
86
101
85
97
91
71
77
71
93
94
92
84
100
73
90
100
88
106
76
70
91
102
98
72
75
108
85
76
107
90
88
81
82
84
72
109
108
95
95
74
88
93
101
70
106
106
96
80
82
95
102
103
85
108
88
101
81
83
74
92
71
90
104
88
84
105
75
85
104
101
91
98
108
109
87
79
85
99
84
83
78
101
83
72
101
109
102
75
108
101
107
87
107
95
73
89
84
84
99
98
95
83
76
88
104
76
106
86
93
78
101
93
108
102
106
106
85
81
91
98
107
107
97
100
73
97
85
78
106
100
106
75
74
71
88
107
107
91
77
107
74
97
100
78
84
88
75
76
83
79
103
83
78
77
107
107
71
95
105
94
78
74
96
72
71
98
79
83
95
82
97
102
109
109
97
103
102
100
71
78
105
89
92
84
93
91
98
85
95
75
72
74
88
78
101
81
103
76
90
96
91
105
85
88
100
82
91
87
90
90
86
89
78
93
87
104
88
85
94
81
96
99
88
72
105
72
80
95
82
77
73
83
71
88
82
96
80
95
99
78
73
106
103
108
97
108
75
92
87
74
70
79
74
80
89
74
103
96
73
73
73
84
83
75
99
86
79
78
82
102
88
85
81
76
107
79
92
70
102
74
90
108
99
103
101
98
76
88
99
94
105
103
106
90
80
73
71
100
101
91
96
101
91
83
75
103
81
99
70
82
80
89
73
105
108
74
81
80
73
105
94
97
104
90
86
71
90
100
83
106
100
86
107
93
83
73
80
84
74
94
87
74
98
106
108
74
106
79
70
108
79
77
78
106
85
73
86
99
70
100
96
104
91
95
84
102
89
85
86
91
77
99
71
100
84
91
107
70
84
103
92
76
79
92
85
105
105
76
89
78
95
97
108
94
98
71
74
95
109
97
103
108
91
95
70
97
85
86
95
79
75
73
83
89
96
70
97
78
107
108
86
71
99
76
72
83
90
93
84
82
86
77
97
95
92
84
77
73
77
107
94
83
86
77
83
83
83
92
100
104
92
80
71
96
74
108
93
80
107
81
108
77
108
95
86
107
71
81
82
84
86
88
73
75
86
75
92
90
95
86
93
80
75
72
75
95
93
97
73
77
84
108
105
97
88
97
101
97
109
70
102
90
94
79
81
87
107
108
79
109
109
106
99
71
105
101
74
77
108
76
70
74
94
101
91
94
82
90
94
81
77
108
90
98
85
96
76
95
108
87
90
101
93
98
88
107
102
109
75
74
78
92
82
71
97
100
82
92
90
91
96
91
88
74
84
85
84
89
92
75
90
84
70
107
78
109
83
84
97
83
104
93
84
81
79
107
92
73
94
82
94
75
77
103
93
96
94
91
90
100
88
82
76
76
92
109
80
100
84
108
106
108
72
72
93
92
84
96
79
109
87
82
105
74
100
109
109
71
78
76
105
88
72
109
91
86
107
107
93
78
99
73
91
106
92
97
82
92
96
76
99
103
109
74
105
80
77
108
96
86
70
88
86
70
99
100
94
90
74
95
74
107
72
85
81
100
82
105
82
105
93
72
96
96
104
83
78
102
104
93
93
77
92
86
83
109
107
95
94
97
99
103
98
99
75
78
79
106
99
72
102
75
90
84
109
70
104
93
90
75
94
72
84
101
90
71
96
85
95
78
75
74
93
84
75
95
93
101
75
93
79
85
102
83
95
95
91
83
85
79
106
72
109
109
95
93
71
83
100
71
95
88
92
101
95
102
101
102
92
97
93
92
71
106
73
88
84
107
90
71
72
107
105
107
86
83
75
77
83
82
80
73
107
79
81
90
107
109
97
97
89
76
86
80
89
109
72
75
81
94
97
89
95
95
92
78
98
76
83
77
94
100
100
86
107
97
84
82
96
89
71
102
85
92
78
71
86
95
74
91
87
89
104
97
84
84
70
105
95
70
93
86
96
88
87
75
80
71
82
92
94
97
94
79
78
74
76
107
87
80
96
104
108
76
104
103
77
98
101
98
95
90
89
71
73
88
81
98
72
88
78
81
109
95
87
76
86
78
73
92
83
88
73
106
105
86
81
99
100
105
89
75
88
96
80
81
89
98
108
106
84
102
102
80
70
89
81
83
107
104
76
88
97
102
70
106
78
97
90
78
96
88
107
76
108
71
74
99
80
95
85
75
85
95
82
89
95
80
101
102
79
87
94
97
99
100
78
79
76
91
92
96
80
72
83
99
97
81
78
109
102
78
95
70
105
92
99
100
89
107
98
76
80
109
102
78
88
104
83
105
97
93
94
95
102
97
96
90
73
76
93
79
108
73
95
82
90
101
81
90
84
76
105
86
88
96
109
88
80
99
82
89
103
71
97
85
97
99
107
104
91
73
86
90
72
70
96
103
102
74
91
82
105
89
82
91
94
89
99
102
98
93
109
70
100
96
92
73
89
86
91
94
71
104
90
85
84
95
72
78
103
99
98
92
86
83
100
107
90
88
87
72
88
101
92
72
98
98
96
100
70
106
97
107
93
97
72
80
70
90
71
94
83
79
85
97
77
98
104
87
76
100
74
86
89
109
86
80
88
99
77
85
72
102
100
103
85
91
81
84
72
79
70
87
100
103
85
80
108
94
77
101
92
87
75
105
94
75
76
109
94
108
82
108
71
107
93
99
87
88
85
80
104
96
93
73
89
107
105
73
109
94
100
72
90
79
99
104
85
104
102
87
99
101
80
97
83
97
84
85
107
78
107
92
104
107
91
85
74
107
82
93
103
92
84
85
102
77
97
76
103
84
75
102
89
86
86
109
108
96
80
95
97
70
83
97
103
106
81
91
71
71
72
91
73
86
70
94
104
81
70
92
108
94
83
91
103
71
85
103
75
79
90
97
89
87
70
85
101
99
70
81
96
94
90
107
77
93
105
106
73
83
105
72
85
80
95
85
109
79
84
87
86
104
89
98
100
91
76
83
73
79
83
81
85
98
88
77
90
105
78
89
103
74
92
104
96
72
103
101
100
103
76
94
95
81
70
82
104
72
109
72
93
85
88
90
86
97
84
98
72
106
109
100
107
87
76
109
86
95
98
82
74
87
93
83
92
83
80
81
70
104
103
102
96
71
84
76
91
84
75
73
103
95
101
90
86
74
91
94
104
93
81
108
88
95
86
78
79
102
72
96
87
89
85
76
74
107
87
88
85
82
88
75
95
73
79
99
78
107
105
107
77
82
83
83
86
71
79
104
70
106
78
86
73
107
93
107
92
106
90
77
74
85
97
79
104
80
90
80
85
98
101
108
84
93
73
72
85
86
105
96
107
102
89
107
94
96
71
73
92
76
93
84
91
99
86
93
91
84
95
104
74
103
80
90
79
72
99
82
75
109
84
78
109
107
105
80
101
103
93
105
107
105
103
99
89
85
80
101
94
85
77
107
108
73
98
101
77
105
96
105
73
100
103
83
99
90
96
99
94
79
100
72
73
72
105
100
106
83
103
80
74
74
77
106
93
73
82
99
78
97
105
94
104
91
107
94
71
88
91
103
72
81
71
104
103
83
75
103
104
85
74
93
88
93
79
84
100
95
104
78
82
71
85
104
79
90
88
103
80
88
77
97
93
109
99
96
83
96
100
98
73
99
74
100
86
100
98
81
81
107
85
109
104
109
76
87
85
88
93
70
94
81
92
91
100
91
99
72
87
72
84
79
95
76
94
70
94
88
95
105
100
101
89
105
99
81
88
84
76
87
74
100
81
74
88
92
109
90
93
105
89
99
108
101
97
89
103
74
94
97
77
85
101
84
107
81
72
109
87
77
91
109
88
72
81
108
74
85
80
83
73
90
75
104
92
93
95
98
76
72
96
102
93
76
100
89
84
93
88
95
81
109
98
83
103
75
78
71
82
85
109
103
80
99
108
81
91
78
105
95
94
97
82
73
86
87
97
92
107
77
83
72
95
97
81
73
86
92
105
75
87
100
85
99
74
84
83
76
98
96
87
104
101
92
86
104
73
100
100
101
97
82
89
71
73
83
88
102
102
107
72
96
97
82
102
74
94
70
74
82
104
91
81
76
72
73
107
84
77
94
102
92
102
99
99
86
78
98
79
92
95
72
92
109
106
96
81
99
109
97
104
107
102
96
71
93
79
105
105
101
91
82
85
80
81
104
87
99
86
87
94
73
79
108
70
91
104
101
94
85
86
83
77
87
100
70
81
89
100
74
88
74
99
82
90
83
106
82
95
95
75
104
93
94
89
78
84
98
99
73
94
73
90
102
89
85
97
86
95
97
84
71
88
101
100
101
70
99
91
104
105
98
90
72
84
83
83
78
80
106
100
77
103
79
97
73
100
78
101
71
81
92
74
93
105
84
103
99
95
73
73
74
71
92
78
108
91
87
94
101
96
91
74
88
99
71
90
84
86
99
89
89
88
76
108
70
75
96
91
93
71
84
71
97
87
100
101
102
91
100
81
106
78
100
78
106
97
97
85
96
103
97
109
92
106
95
98
89
78
105
81
90
93
102
74
92
91
75
71
101
98
96
85
93
73
103
96
108
96
76
83
76
88
83
72
97
96
102
101
94
99
95
80
90
96
93
109
91
82
90
93
105
90
100
81
86
89
74
95
85
90
74
76
81
79
96
107
95
83
105
85
86
96
97
73
85
82
98
102
87
108
71
79
107
81
96
78
78
102
94
76
85
78
73
103
109
77
71
86
78
97
88
97
88
78
72
100
92
98
85
77
86
73
90
76
106
81
91
83
84
103
98
102
84
84
90
77
98
107
89
79
71
84
83
82
84
70
84
72
70
80
102
91
99
97
101
77
78
80
71
89
81
86
88
86
83
92
108
85
104
87
78
89
73
83
81
95
83
70
101
94
100
76
101
104
99
76
70
97
80
96
90
104
76
74
102
108
89
102
73
104
101
99
86
98
84
78
75
81
108
88
107
77
93
78
81
91
104
74
103
97
78
96
85
95
85
84
77
79
95
90
79
102
75
85
105
83
88
76
73
71
79
75
70
86
89
86
83
101
97
83
70
108
91
72
104
71
108
98
85
95
108
96
71
94
90
87
78
75
102
87
83
98
85
70
85
88
88
92
108
86
102
79
83
83
100
72
83
79
98
109
86
77
96
80
105
97
104
104
94
99
85
78
89
74
77
83
105
108
83
72
105
76
72
94
96
102
83
80
70
104
94
85
80
89
99
98
109
102
95
104
97
106
102
81
90
86
103
105
82
89
97
83
77
98
86
89
92
100
95
88
72
89
81
99
74
90
94
102
99
86
78
94
79
105
72
96
104
86
100
96
88
105
91
91
95
70
81
70
102
70
97
96
98
99
81
101
85
73
88
109
90
96
70
108
72
79
99
91
81
92
98
104
99
89
103
97
70
81
79
71
71
83
87
96
84
109
88
101
97
94
89
77
91
77
78
73
107
85
87
99
94
109
84
81
74
99
79
102
107
74
98
90
103
100
92
72
102
97
94
97
78
95
82
96
78
100
94
85
74
91
77
86
86
76
95
75
95
79
75
96
86
73
74
105
94
104
109
81
88
76
81
75
76
79
82
84
99
102
70
105
107
96
100
93
107
87
85
94
88
76
81
105
71
96
77
106
83
80
108
105
81
104
107
89
74
76
105
107
74
83
79
83
95
93
108
89
83
78
85
90
101
91
99
96
85
93
93
95
79
100
72
89
82
93
75
93
74
87
104
84
98
98
104
100
94
89
70
96
87
90
103
79
72
108
104
92
90
88
105
95
99
107
97
98
91
98
98
78
90
103
94
86
100
108
74
84
103
109
105
108
95
107
100
94
104
86
105
95
84
98
106
82
92
101
80
106
76
80
71
108
83
101
91
75
72
104
91
108
100
96
85
107
91
80
99
101
100
97
101
96
76
99
95
72
109
75
76
75
101
79
82
79
76
88
104
74
102
103
93
98
83
99
75
95
83
90
101
102
109
102
76
95
73
106
88
81
85
85
85
92
94
78
76
87
95
105
107
99
78
88
104
88
109
86
106
94
94
88
80
79
107
109
87
76
109
87
93
101
75
82
99
100
86
93
83
92
74
71
103
86
72
84
106
92
81
80
106
98
93
91
70
98
102
93
92
71
70
84
71
84
96
83
71
101
70
85
105
94
103
75
73
83
91
91
77
104
73
98
100
106
72
98
94
85
85
87
86
104
102
78
85
78
76
96
73
70
86
102
70
93
91
101
75
82
80
100
96
91
92
83
103
102
95
86
81
106
82
90
98
95
99
96
80
91
71
72
71
103
78
87
81
105
81
100
84
91
87
79
84
92
89
76
107
70
74
71
94
72
91
71
82
108
78
96
94
99
89
91
99
96
77
97
74
75
80
97
76
95
72
102
80
109
81
100
72
74
88
76
93
103
89
102
85
103
94
86
82
79
89
82
108
89
85
99
97
97
71
99
92
100
90
102
100
77
76
76
95
82
83
77
87
103
76
70
91
105
85
83
105
77
89
93
99
74
76
94
95
92
72
99
91
107
71
90
105
76
105
83
71
94
81
100
99
71
75
71
85
104
97
87
93
87
87
83
70
91
83
106
107
77
105
96
82
101
85
80
78
90
90
82
105
102
75
102
105
98
96
82
98
70
107
89
85
91
100
93
103
76
90
86
93
74
90
107
79
72
109
88
107
87
101
89
75
107
88
86
81
77
105
79
90
97
75
90
105
99
79
82
86
94
80
107
94
109
85
92
76
70
71
99
88
75
91
71
104
91
98
106
92
89
71
85
86
99
97
97
105
101
74
83
90
79
87
104
101
101
105
82
73
101
106
97
78
70
92
77
85
87
95
106
81
102
98
85
93
90
100
79
70
99
75
72
75
72
77
102
90
97
85
77
108
103
80
81
100
89
96
106
92
80
96
87
72
100
90
79
71
80
94
91
96
76
99
104
89
106
83
84
78
99
98
70
71
99
71
75
82
90
87
71
100
100
93
97
90
76
102
82
93
84
77
102
109
88
90
108
93
108
73
91
87
90
96
77
81
105
88
81
73
74
96
107
77
93
86
103
94
92
104
70
78
86
90
96
87
79
88
99
94
101
79
106
104
86
103
106
75
72
83
97
88
74
108
71
72
105
107
90
101
77
94
108
98
86
109
88
109
81
93
109
108
103
108
106
102
95
94
83
92
90
80
91
103
72
75
83
99
74
83
81
85
88
97
100
89
76
77
71
88
78
104
76
71
89
97
75
91
101
78
75
76
78
94
104
79
86
93
86
105
71
71
93
104
83
72
77
84
104
84
76
87
86
98
78
88
106
102
108
94
72
88
96
107
84
103
79
103
90
105
96
87
104
87
77
77
96
101
104
90
74
88
104
98
105
83
99
95
84
99
94
88
72
98
90
106
109
81
73
103
86
97
75
87
109
107
106
101
70
78
108
108
106
90
98
89
71
75
108
90
94
96
88
87
102
100
99
96
71
101
94
88
81
91
84
80
78
99
92
87
85
85
74
89
88
74
107
77
96
82
89
83
88
109
107
77
80
88
88
94
75
83
101
105
99
96
70
83
99
70
90
107
100
104
106
97
84
88
106
77
85
71
105
73
82
97
94
98
79
76
84
98
105
82
103
98
100
104
71
87
108
78
84
74
101
95
75
84
103
83
88
97
108
92
108
85
100
77
74
76
100
90
100
102
90
83
75
83
100
75
95
92
105
81
92
99
87
100
85
99
71
84
109
82
103
79
84
85
78
97
78
93
109
88
75
90
92
87
106
101
107
72
103
106
98
88
79
70
90
94
106
77
86
83
80
95
76
97
78
91
81
77
83
101
92
103
87
100
105
108
92
71
97
73
95
98
103
106
104
83
70
108
71
82
82
72
90
96
85
81
85
71
91
105
73
82
95
86
80
102
87
107
72
98
70
92
94
107
89
97
109
83
92
79
87
107
101
91
82
86
80
73
71
96
85
100
103
86
72
79
95
72
104
107
94
109
98
90
77
109
86
99
102
77
98
79
103
79
101
108
89
96
87
79
76
94
104
71
86
73
70
104
76
80
74
70
79
104
101
90
83
81
95
89
92
82
89
99
106
70
76
82
103
102
73
84
85
105
106
98
109
105
81
106
78
72
87
74
91
75
95
86
81
70
93
91
87
88
89
85
94
72
89
70
83
88
78
96
98
106
85
93
109
72
80
85
102
87
70
88
105
71
105
100
78
92
70
73
86
105
83
83
99
70
76
104
93
71
86
75
98
88
71
96
102
109
85
97
75
78
79
72
98
75
89
93
75
100
76
107
90
93
77
78
90
96
93
72
78
99
105
93
70
107
82
75
87
89
71
93
102
76
106
74
94
103
105
105
104
93
78
72
106
74
97
86
99
76
100
94
102
98
95
101
85
99
101
93
80
99
86
99
102
97
103
85
92
108
103
104
84
71
84
81
87
106
77
107
109
108
105
97
76
70
96
100
88
105
79
103
82
83
90
97
108
78
70
74
76
97
85
106
87
91
77
94
80
77
91
85
81
87
108
106
81
86
92
74
70
76
82
73
109
81
108
96
72
73
87
82
79
86
106
86
98
96
99
95
70
97
90
107
78
85
77
89
100
82
107
103
104
109
85
99
80
70
90
104
81
100
106
90
109
84
109
70
109
78
85
84
105
104
81
70
85
71
92
78
78
91
77
83
86
91
88
108
100
73
101
72
104
103
87
101
85
90
72
72
104
85
99
84
80
81
106
86
78
76
105
73
71
80
99
101
79
94
107
70
72
98
102
82
84
73
79
74
104
96
82
76
81
78
101
89
107
101
76
107
80
101
77
89
78
106
83
86
76
102
94
71
109
98
75
92
78
82
104
72
85
70
91
100
83
80
99
81
92
107
95
77
99
104
102
104
91
95
87
79
76
100
90
88
107
96
101
87
109
74
84
96
85
109
107
103
84
84
94
85
104
83
99
91
73
103
78
84
103
89
85
85
96
71
93
105
97
92
85
75
82
106
81
98
87
108
74
84
77
72
76
100
98
109
104
70
95
82
99
86
74
71
71
75
79
104
72
81
96
103
98
79
109
81
105
94
109
76
88
76
85
102
70
96
72
106
70
102
72
71
71
77
91
74
107
88
82
85
99
98
79
72
91
101
109
79
90
84
108
76
93
95
108
94
101
103
106
105
78
99
73
80
96
99
75
89
75
75
105
72
79
74
71
95
106
83
74
101
86
91
94
84
98
77
108
87
87
98
97
99
86
77
77
101
72
78
98
76
78
93
83
89
106
106
103
101
94
98
86
81
76
101
83
84
101
109
83
104
94
97
77
102
79
92
90
92
70
103
71
100
100
86
96
86
78
90
80
81
79
90
78
86
75
96
98
109
103
73
81
100
104
92
109
100
82
79
104
103
106
94
106
88
101
94
73
81
81
90
89
99
77
91
93
105
85
101
108
94
97
103
79
88
87
91
90
109
93
103
80
109
107
99
108
80
81
76
86
82
77
73
75
91
104
84
105
100
105
99
72
103
73
80
84
86
97
109
83
103
97
92
106
87
83
78
101
108
80
74
70
71
105
104
94
106
104
103
90
78
95
108
79
97
73
92
73
86
88
91
73
108
95
70
109
76
81
102
76
77
90
102
98
74
101
79
97
79
109
106
73
96
71
102
105
75
80
98
70
70
107
77
75
84
78
108
106
84
86
101
98
98
71
97
82
98
104
78
108
83
87
102
78
105
105
106
85
93
109
100
106
88
82
91
106
109
109
80
105
71
88
105
102
108
79
99
109
104
108
93
89
76
86
91
88
97
78
96
84
80
98
96
78
75
101
101
94
73
70
104
88
102
72
106
73
105
98
92
83
107
72
76
78
100
98
72
95
72
92
88
109
74
102
95
73
88
84
74
102
79
80
77
90
88
86
74
75
83
81
75
101
99
92
82
75
99
84
87
109
87
100
98
89
70
97
73
76
86
87
108
82
80
75
71
85
101
107
104
99
82
90
89
91
72
105
88
81
88
106
78
72
77
102
93
79
73
107
94
95
93
78
81
76
83
71
109
106
70
93
83
89
85
71
78
100
75
85
94
71
107
70
102
80
82
83
82
88
101
108
93
89
85
89
74
73
72
84
105
80
90
77
76
103
108
78
74
73
107
73
100
86
108
78
95
86
103
73
89
99
97
100
79
106
71
105
70
108
79
90
73
71
97
100
75
74
87
97
85
98
73
77
82
78
107
84
104
73
99
82
106
89
86
99
108
84
90
92
103
91
81
97
78
89
92
89
104
109
102
70
71
85
91
74
71
102
89
103
107
90
86
85
77
98
82
97
108
76
86
83
91
78
85
97
104
100
74
83
74
86
90
103
71
109
107
70
84
103
78
86
70
81
97
81
81
93
79
78
95
93
100
79
83
102
76
91
87
72
91
108
91
101
75
91
86
104
97
98
105
104
96
99
90
93
75
80
79
91
77
107
109
92
107
102
71
75
84
101
90
102
80
75
105
75
95
74
84
87
107
79
70
98
97
101
79
95
108
105
87
107
83
86
93
84
91
82
103
92
71
72
91
93
104
88
85
96
96
84
81
73
91
84
83
77
72
92
101
94
92
100
97
86
73
104
80
83
109
97
99
90
109
93
96
87
91
98
102
75
101
73
92
79
81
72
72
88
94
96
76
107
84
89
77
91
71
90
78
89
80
93
82
100
84
98
98
97
81
91
102
100
95
105
103
104
75
93
100
91
106
105
83
102
75
88
99
107
102
74
87
95
100
85
93
91
78
81
88
85
75
106
100
77
92
100
72
85
75
82
96
95
84
95
91
102
98
89
90
102
108
90
83
77
106
105
92
70
91
96
100
99
72
87
71
75
95
90
72
101
80
103
84
100
100
90
100
107
80
76
91
91
84
97
97
98
104
97
103
86
97
105
92
91
97
107
80
97
77
99
87
73
99
100
104
89
107
74
70
78
77
97
94
82
107
94
98
71
97
85
78
75
98
83
81
108
109
76
95
77
80
104
100
81
107
105
99
79
72
72
80
71
73
88
91
85
99
75
70
99
90
93
96
100
77
94
108
94
76
107
91
71
95
71
81
84
88
70
95
93
91
90
92
109
101
82
81
105
83
71
101
79
93
89
103
105
107
98
74
82
94
72
94
72
106
81
84
98
74
83
90
76
77
106
96
81
88
85
90
73
92
90
71
75
73
73
81
84
99
79
86
104
108
76
102
80
90
103
94
85
82
72
109
92
85
78
93
99
74
82
84
74
109
92
83
94
103
77
95
90
109
93
86
71
77
93
92
94
78
87
103
75
103
101
96
92
91
80
83
97
84
90
80
103
70
101
107
104
101
109
96
86
73
108
108
72
81
93
72
99
102
83
87
76
98
106
74
85
96
94
82
86
109
91
70
86
87
93
85
90
77
98
102
78
88
100
78
90
89
74
98
78
91
90
101
81
73
88
101
94
91
82
97
80
93
95
85
104
89
101
82
84
79
74
71
98
105
101
109
70
92
86
81
104
108
75
107
105
94
77
95
95
100
83
105
88
93
77
71
100
83
75
106
85
89
86
84
83
109
103
96
91
106
72
87
80
89
80
71
109
105
91
97
98
108
104
74
109
84
92
90
106
86
72
92
102
93
71
93
73
74
99
73
98
100
104
106
87
106
72
98
85
96
96
107
109
90
91
92
72
74
78
87
84
88
84
81
87
107
83
74
75
99
71
70
91
80
101
107
85
96
75
108
80
109
70
85
104
70
99
79
96
72
82
94
71
83
104
82
71
81
108
83
82
101
109
88
77
97
105
90
81
90
89
100
79
96
83
102
100
88
96
99
94
108
88
79
78
79
74
101
94
81
105
95
109
98
99
87
88
92
99
94
108
81
90
76
105
95
105
87
89
73
98
95
105
73
72
73
103
82
100
98
101
91
82
95
101
80
83
91
70
107
99
89
77
84
94
90
71
108
103
88
86
88
81
84
82
108
82
94
90
78
109
75
76
77
70
83
81
82
107
100
100
109
81
105
101
107
109
71
88
94
85
89
83
86
70
98
81
71
78
108
88
107
108
78
74
105
103
83
90
101
109
89
85
91
94
103
91
78
95
83
85
70
83
98
82
74
103
73
93
81
92
108
89
79
91
109
88
78
76
95
80
75
80
75
79
91
96
75
104
86
101
85
78
75
81
91
73
108
93
105
71
74
109
94
100
84
105
86
77
93
93
102
90
100
76
106
106
87
88
101
91
106
109
87
98
101
79
107
96
76
88
97
94
83
79
97
74
73
86
82
106
100
82
106
80
94
104
102
79
71
94
92
77
106
104
95
98
100
109
83
88
107
73
106
107
107
91
79
82
87
98
96
71
102
83
81
99
91
86
79
102
105
99
73
102
71
103
78
101
89
91
99
88
72
70
100
93
83
82
86
85
101
77
82
83
104
105
100
83
90
109
76
102
103
77
92
101
72
72
76
108
107
89
91
105
99
81
103
85
89
82
103
83
75
71
78
78
84
82
98
80
84
86
94
104
73
70
85
107
101
109
105
78
91
72
91
91
77
88
83
99
71
101
98
107
97
80
77
105
105
95
77
81
79
71
101
83
101
108
84
95
87
93
108
92
79
70
106
93
93
93
95
70
101
81
102
93
104
72
103
100
71
81
75
86
85
89
89
72
93
81
73
98
85
87
103
78
105
100
105
104
83
87
100
102
105
104
101
82
103
103
76
78
87
86
101
104
94
84
74
94
81
108
91
107
79
77
80
99
105
75
88
107
87
70
83
76
101
81
85
98
78
78
99
104
104
80
75
71
81
88
79
70
79
101
107
75
70
102
80
107
77
81
79
87
106
90
82
88
104
84
71
108
86
99
78
89
106
109
109
106
70
70
106
72
97
75
73
82
81
74
95
104
103
88
94
92
83
98
105
98
83
105
91
105
86
103
83
106
86
79
83
81
77
100
81
75
70
80
85
95
104
89
92
95
79
103
85
73
107
104
74
80
85
79
81
105
87
83
99
91
75
100
84
78
71
92
101
103
95
91
95
75
107
75
97
83
107
101
83
78
73
108
83
101
78
104
104
107
103
78
70
107
89
70
89
103
91
100
102
102
91
100
70
77
83
104
108
73
93
92
89
108
109
76
85
95
86
100
97
87
72
95
99
99
97
92
98
92
73
70
91
109
98
99
83
78
103
80
70
84
76
83
95
91
95
73
96
78
86
81
77
94
73
104
92
74
89
94
71
86
81
81
86
79
92
80
94
85
104
107
103
98
81
106
85
90
96
83
100
92
85
96
98
80
91
96
95
89
84
76
72
109
108
109
93
98
82
108
95
91
84
90
70
83
99
73
98
82
103
98
105
86
108
81
72
100
109
70
101
71
95
70
100
96
82
97
81
70
75
101
94
72
85
75
85
73
90
80
80
82
101
87
102
87
73
84
73
75
103
92
86
109
84
84
93
103
73
87
98
76
79
92
98
107
75
103
90
97
78
71
101
75
96
96
100
108
94
82
83
92
98
73
98
82
74
78
81
99
83
94
103
92
95
106
93
108
76
95
70
109
88
102
106
101
74
87
83
104
107
81
71
88
76
85
80
79
89
84
97
92
79
70
74
85
98
109
77
100
90
89
97
93
71
85
87
103
83
90
91
81
86
99
93
86
104
88
89
100
90
71
76
90
78
95
81
88
72
87
107
99
93
95
107
105
100
109
99
73
73
107
76
87
105
70
109
103
99
98
86
88
84
93
92
84
102
97
101
100
98
102
70
104
75
104
83
96
109
84
96
109
94
72
77
107
76
92
95
99
87
84
93
76
72
95
79
82
105
77
86
98
79
92
96
76
70
91
99
82
108
107
84
72
105
83
104
77
85
76
90
81
99
108
70
71
92
78
102
93
87
105
84
73
79
72
71
79
86
90
73
104
97
99
104
109
75
107
91
92
102
77
72
98
87
83
83
74
82
96
105
109
103
102
78
106
107
81
108
80
89
76
78
74
106
90
76
106
91
72
95
97
78
73
71
109
100
98
74
84
90
71
104
89
97
109
77
109
82
89
71
95
105
73
81
71
97
98
72
79
89
90
99
91
78
95
104
107
89
87
76
86
82
81
75
105
85
76
74
89
100
79
104
77
85
73
76
88
86
82
107
77
78
81
89
99
109
87
106
107
102
99
81
80
76
104
73
79
108
77
74
87
74
83
95
90
70
100
93
108
95
81
70
100
104
109
103
88
91
97
79
102
100
87
97
97
95
91
75
105
101
94
96
102
106
109
83
85
106
90
86
84
70
81
97
75
81
70
102
91
89
93
101
84
74
82
84
106
100
90
97
87
72
105
99
87
86
109
78
95
84
83
93
87
98
105
92
90
105
92
86
108
85
75
85
92
96
83
81
106
90
77
75
74
86
109
106
81
102
107
94
71
81
95
98
78
100
81
95
91
103
71
71
74
73
75
79
78
95
92
89
106
81
84
89
81
93
81
86
77
89
96
107
70
83
71
103
89
91
73
74
75
75
80
73
86
101
85
99
100
102
100
77
81
90
79
74
86
88
87
87
82
79
82
103
84
105
89
75
95
103
73
92
85
85
77
107
103
104
90
81
99
101
99
74
96
107
86
88
78
100
94
77
105
72
106
73
88
99
94
101
97
88
89
70
87
102
87
78
86
98
104
80
86
76
105
75
70
94
89
81
107
83
102
104
82
77
73
104
98
106
103
70
70
95
89
88
89
85
95
82
82
107
89
97
75
76
94
79
92
91
72
78
77
92
79
79
100
101
77
85
84
101
82
70
71
83
90
90
108
82
107
87
84
108
91
76
74
92
82
85
90
89
83
70
108
96
97
108
96
88
88
104
75
84
81
101
83
76
90
100
72
102
109
101
84
92
80
105
84
101
93
70
71
96
83
107
102
77
92
93
101
71
104
105
82
72
99
74
83
107
106
93
84
80
92
75
73
83
102
104
81
78
103
82
108
80
78
107
86
78
88
91
100
89
87
103
70
72
87
86
70
95
99
70
97
88
87
75
91
73
87
80
96
95
96
97
72
106
93
79
82
88
102
93
84
78
76
108
98
108
71
90
93
89
75
72
86
71
96
91
108
79
82
90
82
80
89
82
84
85
81
103
75
93
92
101
78
95
86
78
92
100
82
92
96
95
108
96
92
91
102
84
73
77
94
79
78
74
104
87
79
105
104
91
72
100
75
105
90
75
103
94
76
73
80
76
86
107
100
97
99
71
73
102
85
73
93
108
85
84
79
70
106
79
92
83
97
109
108
74
71
74
86
100
108
106
89
84
96
76
77
82
82
80
73
104
78
85
78
92
70
70
84
88
109
78
92
78
80
73
109
72
78
76
99
103
73
72
93
106
109
75
94
74
73
104
94
99
108
72
89
70
74
105
89
93
79
70
72
101
91
71
96
99
78
106
86
97
93
98
100
72
102
79
78
82
81
70
104
88
72
99
102
81
80
100
84
100
104
79
95
80
82
87
92
106
72
107
95
88
72
80
86
76
91
80
71
82
82
98
95
85
82
100
101
86
90
71
95
103
74
82
83
87
86
98
96
87
83
72
102
101
98
90
91
78
99
87
104
82
75
93
92
106
81
94
71
77
101
91
97
100
74
70
99
98
78
94
78
104
96
103
100
72
81
81
84
96
94
107
97
105
93
78
77
97
109
94
82
94
83
87
73
100
75
84
71
80
92
94
77
70
94
106
95
96
88
84
79
96
109
100
98
105
71
94
99
72
104
94
71
88
84
107
105
87
91
99
87
91
109
79
85
97
94
97
104
103
101
91
109
96
88
90
107
104
74
99
87
89
80
109
103
93
104
79
72
108
74
91
83
89
99
91
70
88
104
99
72
107
73
103
103
86
70
86
77
87
94
71
87
90
77
91
96
99
85
100
94
85
73
76
84
83
78
105
72
101
99
96
93
85
91
87
91
75
80
95
102
86
82
106
93
75
104
73
107
107
86
105
75
104
96
71
104
80
102
90
91
86
104
72
73
77
108
107
99
70
93
109
87
92
78
74
95
78
88
78
81
85
89
95
87
70
70
107
96
82
89
77
95
108
94
100
74
91
83
100
102
73
102
97
80
75
76
97
103
90
86
98
97
80
78
108
91
79
92
80
109
95
98
82
92
71
94
90
74
102
81
73
75
82
83
74
98
97
81
71
76
94
74
70
90
78
87
75
109
83
73
95
93
81
79
89
99
95
71
109
87
72
93
106
108
98
107
73
91
71
104
74
86
91
83
73
94
93
73
89
94
106
94
103
74
101
89
99
74
107
74
74
107
87
72
88
80
73
94
92
93
93
71
108
100
97
82
99
100
70
103
104
95
99
74
104
74
70
95
87
74
101
79
75
109
76
106
82
95
103
86
85
94
91
86
76
88
72
70
92
92
81
102
79
94
95
86
99
103
107
81
85
84
75
77
95
109
71
106
80
81
84
72
75
80
88
86
75
105
103
80
101
102
102
81
94
85
78
82
79
95
83
105
102
94
102
85
103
107
79
96
82
78
103
79
79
90
101
87
95
103
80
80
93
82
76
78
78
82
96
93
100
84
87
77
89
74
86
94
98
79
94
102
105
86
97
96
88
76
107
80
99
106
81
85
85
96
101
77
102
87
77
95
75
77
88
101
102
70
74
97
88
73
82
89
100
89
82
70
94
93
79
97
100
83
107
87
100
88
79
87
70
90
100
73
99
90
107
82
94
100
91
93
81
105
76
84
84
103
74
87
82
79
100
92
108
72
93
71
98
74
99
92
70
109
86
99
92
75
107
107
88
107
98
75
94
95
76
93
71
89
105
99
90
89
105
94
74
82
89
109
79
70
97
107
71
103
75
93
78
80
70
90
84
75
101
99
78
108
74
84
71
109
78
84
81
83
109
82
70
74
77
80
92
101
88
93
81
104
99
109
98
89
70
76
98
92
108
84
74
70
101
98
100
76
75
79
76
102
81
86
105
102
91
97
88
93
90
73
90
96
78
94
95
94
89
75
107
78
89
78
72
70
78
79
84
79
102
102
85
88
101
82
106
71
81
88
99
71
77
80
100
87
83
78
86
103
88
87
102
81
83
98
98
85
102
82
105
92
80
81
75
74
97
79
97
78
80
99
70
108
90
82
70
85
84
70
86
93
106
104
108
85
105
96
104
89
98
84
91
77
104
96
70
108
109
93
71
98
87
101
96
82
97
70
88
98
95
77
79
70
105
92
108
82
108
71
104
92
77
108
96
89
80
106
95
103
72
107
75
82
80
108
73
107
81
100
99
78
77
91
89
107
107
78
94
80
100
72
108
77
86
107
90
103
70
71
77
81
91
106
93
80
73
105
74
94
108
101
102
97
93
74
101
85
90
84
98
103
104
83
91
91
100
104
81
73
91
104
96
99
103
81
86
107
75
99
82
83
80
73
82
100
105
103
106
106
75
95
73
80
106
87
102
104
104
108
99
102
79
77
81
102
105
97
101
83
86
91
105
97
78
95
93
101
87
109
88
100
81
78
98
81
80
92
92
107
82
71
74
78
98
101
71
81
84
105
106
88
90
96
72
98
102
88
105
70
73
98
80
105
83
105
93
75
75
99
93
108
98
72
101
97
108
73
90
91
95
82
93
106
70
83
77
93
72
91
70
101
85
94
80
75
104
98
91
71
75
100
74
107
96
88
101
71
108
104
107
78
73
92
87
105
84
75
91
74
107
89
98
100
75
98
91
89
105
95
99
76
88
86
81
72
91
78
80
88
91
91
81
73
107
70
95
109
90
89
87
97
88
74
79
105
93
70
86
107
79
104
93
81
90
98
109
83
100
99
104
84
81
89
76
100
109
105
78
86
97
109
83
74
104
77
93
102
89
97
91
81
103
70
98
72
96
71
107
108
99
102
109
91
86
75
85
95
103
92
90
92
97
86
94
93
97
107
90
74
81
108
97
107
76
72
105
80
107
102
101
107
72
96
102
86
74
73
98
106
80
88
93
71
97
85
96
83
107
83
96
77
91
86
73
81
84
104
106
81
91
71
106
81
75
104
107
75
92
98
78
101
82
108
71
80
91
73
98
90
88
94
102
70
88
104
98
99
105
107
85
82
72
105
106
92
107
87
108
100
70
103
94
104
91
73
71
85
77
83
83
107
78
107
85
95
103
90
76
89
97
99
91
85
74
92
86
93
82
77
90
87
86
87
76
83
84
79
109
88
80
74
76
87
102
107
92
71
90
83
71
75
109
80
75
105
80
89
109
93
70
97
76
70
85
75
95
94
101
85
81
79
76
95
91
84
73
101
107
70
87
91
84
105
100
82
70
70
83
80
103
98
88
84
98
95
82
82
87
81
77
83
99
92
80
82
106
84
100
74
82
101
87
92
82
108
96
103
83
109
92
80
93
78
71
109
93
84
103
93
77
85
78
75
76
102
94
90
96
93
90
98
106
74
82
91
105
82
71
98
90
100
96
82
78
72
101
109
76
75
98
91
104
80
94
106
76
100
100
95
86
81
105
84
106
78
104
83
106
100
83
89
107
76
74
70
106
103
96
92
71
86
108
77
72
108
94
107
105
88
99
74
107
79
107
97
91
105
88
73
84
99
81
108
95
109
89
83
82
85
82
73
102
76
93
75
78
79
102
84
109
73
99
99
95
79
102
96
99
84
76
96
95
77
84
109
77
88
108
73
109
105
80
76
98
109
85
92
73
99
94
93
79
79
108
74
75
73
83
90
84
85
90
102
92
76
107
89
85
83
76
89
107
75
109
86
74
97
84
81
89
70
93
71
72
82
101
77
94
77
105
78
94
86
83
91
82
71
85
75
72
96
81
99
100
107
80
79
87
104
89
97
79
82
108
89
79
82
72
71
88
107
74
109
95
109
103
88
89
94
75
104
77
77
107
94
97
81
72
94
72
106
85
101
106
78
76
85
100
71
107
78
97
83
84
71
81
84
101
109
74
72
94
107
92
84
73
99
89
109
95
76
85
79
72
77
90
90
90
96
103
105
87
82
82
93
80
75
107
106
103
73
108
103
107
82
86
92
85
89
93
79
91
80
86
96
74
72
88
70
81
77
105
104
92
85
74
89
78
89
102
86
91
101
103
98
85
109
98
84
101
89
75
103
108
91
84
75
91
78
74
98
72
97
97
77
81
92
82
87
86
99
81
106
106
96
107
105
82
109
88
86
98
75
78
94
100
85
102
89
90
72
107
70
94
79
71
78
96
82
104
95
88
86
92
109
108
83
105
108
76
74
104
97
108
86
91
98
90
109
100
83
88
86
96
82
84
77
84
77
87
84
94
106
83
93
88
71
97
102
72
99
97
107
83
93
82
98
92
76
77
91
103
71
85
71
107
78
82
91
79
80
103
109
76
102
96
78
100
88
104
72
81
87
90
81
96
106
86
73
80
101
102
96
102
103
73
108
91
82
104
106
72
73
80
107
96
85
95
105
88
96
82
89
74
86
78
107
96
96
94
88
79
91
93
100
105
73
84
100
72
71
78
82
104
102
106
70
76
85
80
103
76
95
104
74
77
105
87
82
90
71
99
74
90
104
98
87
97
103
94
72
83
107
107
90
78
89
84
79
72
96
107
80
73
77
87
99
82
97
99
94
94
72
109
108
72
82
100
87
109
96
78
96
83
103
96
107
106
105
87
86
74
101
103
83
78
75
98
91
96
100
100
102
84
97
76
89
73
107
77
95
77
75
109
75
80
108
70
92
93
101
107
90
108
83
77
88
83
71
88
83
79
100
103
90
93
83
95
95
109
82
99
93
82
74
75
89
83
72
74
70
94
71
96
100
109
92
102
105
97
82
72
91
95
71
87
92
88
103
104
78
93
103
71
97
75
100
80
100
75
101
103
72
77
102
102
91
70
87
103
92
103
85
99
106
96
79
83
105
101
75
77
95
96
98
89
100
88
81
91
97
96
98
84
99
74
98
93
104
70
84
91
105
77
78
97
88
83
82
82
100
85
105
71
98
79
91
104
78
73
97
94
99
75
78
80
79
70
91
84
90
93
99
97
81
100
71
98
78
96
90
85
98
95
103
101
102
105
98
94
70
79
76
87
80
83
91
92
99
104
81
92
98
91
84
88
75
91
78
70
100
77
86
85
94
99
79
97
76
70
95
105
93
89
106
95
72
72
96
72
80
105
77
109
80
73
103
97
104
98
93
100
105
76
70
79
86
90
80
105
75
78
90
90
90
88
108
86
76
106
85
92
85
96
85
71
99
86
92
84
96
74
107
109
78
92
98
94
90
83
73
71
84
106
75
97
86
98
88
108
92
106
98
103
91
101
90
73
76
91
84
81
98
106
80
81
98
94
74
73
91
94
92
105
87
73
106
101
97
97
71
88
87
71
71
99
73
72
76
109
74
71
109
79
71
90
99
72
70
81
86
95
105
84
96
103
107
108
80
80
74
93
82
83
109
98
108
102
104
98
84
89
102
74
96
80
70
107
94
106
81
77
94
105
91
75
101
75
96
89
91
80
98
100
87
85
88
90
89
97
88
106
72
94
79
100
86
106
72
91
96
70
108
106
98
87
106
94
91
99
88
90
93
78
80
80
88
70
77
79
70
76
96
80
82
84
94
86
101
70
85
100
98
70
95
97
91
73
109
98
106
105
88
103
84
74
100
97
91
70
103
73
84
102
96
101
97
83
75
79
79
92
108
102
74
96
105
73
95
78
109
89
90
91
99
70
106
92
88
93
90
101
76
105
89
73
74
72
108
90
77
95
106
107
109
80
81
109
75
106
95
87
98
90
107
90
78
89
85
83
90
70
100
106
84
86
102
99
83
89
85
90
84
102
80
101
97
106
95
93
108
85
92
85
75
109
86
85
84
72
79
105
106
99
72
102
96
80
108
77
86
88
75
76
74
85
96
72
88
92
76
71
93
89
108
86
104
107
81
94
91
97
95
84
89
85
104
73
88
80
73
103
96
94
86
109
108
108
90
77
89
87
105
84
109
78
97
82
75
107
77
83
107
86
93
93
87
83
99
75
83
93
95
89
92
98
77
104
109
105
109
92
109
74
84
101
109
101
89
75
81
109
83
85
78
94
97
92
91
101
89
83
98
87
93
106
88
109
82
84
91
86
107
109
92
109
95
96
77
93
78
87
109
98
81
100
73
74
107
96
77
108
98
107
76
95
98
75
108
94
85
72
70
106
91
103
109
73
96
101
92
78
79
88
92
81
105
72
86
97
83
99
87
102
94
89
106
92
96
77
98
77
100
93
71
94
101
100
72
85
73
78
83
89
76
108
73
82
106
89
93
83
97
99
70
77
93
70
75
86
86
93
95
82
96
91
70
72
106
106
94
81
73
82
89
100
77
107
74
70
75
78
70
80
101
97
101
73
96
74
80
85
100
86
86
70
97
74
106
91
104
106
103
70
79
96
79
74
74
95
95
92
86
96
79
105
79
77
74
81
101
100
105
106
82
79
108
80
87
82
83
108
72
76
98
91
109
97
108
80
75
87
97
92
74
79
91
77
79
87
101
101
93
86
101
92
72
71
84
105
107
74
83
93
82
103
88
96
90
109
81
104
96
90
80
103
71
91
80
108
70
78
79
101
73
102
85
84
70
71
108
71
99
83
96
101
103
93
72
101
102
99
85
97
105
73
91
83
109
84
95
87
106
75
96
82
71
101
96
73
100
87
92
100
89
109
98
92
109
84
91
107
97
85
73
84
102
84
99
107
84
81
95
101
85
79
95
91
89
99
87
83
75
87
109
72
91
96
90
107
102
93
96
105
107
81
109
103
103
83
87
92
76
107
80
94
93
71
85
96
109
80
105
82
81
79
79
81
75
92
79
73
72
88
88
88
76
72
104
100
109
77
104
80
77
106
108
107
108
78
105
98
101
75
103
71
71
102
105
97
87
80
82
78
101
76
83
95
92
82
91
83
94
107
102
86
103
86
81
99
104
99
100
80
96
86
96
81
78
109
100
79
81
94
83
107
83
107
88
102
100
71
85
90
107
94
104
94
82
87
103
70
99
109
93
98
85
79
94
80
100
77
79
92
80
76
97
87
84
99
104
77
82
71
103
83
77
84
86
81
103
77
103
85
92
101
93
72
86
87
70
85
91
83
83
71
76
99
109
82
79
109
90
101
103
97
96
86
98
101
106
70
92
71
105
87
83
99
84
83
106
70
82
79
89
74
71
104
85
74
70
84
100
89
87
77
84
102
97
89
100
83
97
93
75
86
76
76
72
79
81
106
81
107
106
94
96
89
108
96
83
107
101
102
83
79
94
93
79
70
98
94
82
92
78
103
90
74
104
100
75
97
85
70
91
96
109
99
71
95
90
77
102
92
74
79
84
86
88
94
74
73
98
101
108
90
78
107
75
99
78
80
76
104
103
94
96
99
100
93
77
77
96
97
78
102
108
104
103
71
77
95
75
78
90
84
73
107
84
105
84
80
86
95
91
77
80
82
72
77
79
108
92
107
95
108
107
105
83
104
76
107
84
80
108
87
89
109
107
103
94
106
87
91
104
82
88
72
71
90
100
86
85
80
107
105
70
101
109
109
96
87
99
72
70
98
100
106
103
95
89
96
84
85
91
106
75
80
99
97
93
87
98
93
86
90
74
102
70
92
93
98
107
77
92
86
82
75
83
72
70
107
91
85
87
90
88
102
103
73
92
104
97
104
91
108
107
105
97
76
86
89
81
87
107
107
72
95
89
70
81
89
108
87
73
101
71
82
78
79
93
101
84
84
108
85
80
105
100
102
72
105
87
93
82
101
73
104
101
89
106
104
78
101
105
94
99
81
107
92
109
76
85
77
73
71
78
79
103
77
96
96
87
94
81
71
97
92
101
76
100
78
94
99
98
99
94
109
106
105
108
96
93
79
94
80
92
103
86
77
106
80
88
87
79
107
91
79
108
108
93
72
78
108
84
102
85
85
91
94
92
101
73
102
86
70
105
102
102
109
93
79
79
74
91
107
70
87
109
86
77
93
100
99
106
107
101
74
71
97
71
88
82
76
75
95
80
106
101
88
78
72
106
94
88
98
82
93
101
100
104
75
107
78
96
101
103
101
73
77
104
72
75
75
101
71
82
74
75
91
99
85
75
106
94
97
92
74
93
100
109
88
76
70
93
97
90
79
87
104
95
73
88
89
102
104
75
79
93
79
79
89
106
93
71
97
96
72
106
80
75
72
92
76
81
104
85
108
81
96
81
78
96
94
87
86
81
94
94
74
76
79
109
83
91
104
105
95
105
92
92
77
100
90
84
72
77
103
82
80
78
88
92
77
91
99
78
77
83
85
76
80
89
97
107
74
78
95
73
98
89
76
81
104
98
73
107
108
83
86
84
92
80
96
90
86
81
80
75
95
85
78
103
75
73
78
82
95
90
74
94
74
79
80
97
75
98
77
107
103
89
74
83
82
72
70
74
80
97
93
72
76
71
104
109
73
79
100
99
72
103
103
74
105
92
80
92
108
71
87
99
90
103
101
71
88
109
109
76
93
76
91
83
100
96
91
88
92
104
85
101
101
79
96
76
101
87
101
74
101
103
86
91
86
79
78
96
79
88
98
80
91
74
81
94
87
88
96
87
98
87
104
95
72
79
100
109
72
97
70
91
108
98
82
82
80
86
109
94
87
81
71
70
107
106
71
88
76
89
101
82
107
98
78
107
87
106
83
107
88
73
100
72
106
97
75
74
107
78
75
74
80
103
107
95
101
108
77
88
77
72
101
73
97
105
102
80
99
70
70
95
70
72
101
95
94
100
82
90
94
95
95
82
98
75
78
97
97
106
100
72
88
88
93
92
107
93
72
109
84
75
84
97
89
86
75
105
90
82
94
82
80
97
74
95
92
76
89
101
71
89
83
71
101
79
79
99
80
78
101
100
90
106
78
74
107
82
78
87
92
107
104
98
82
91
74
82
104
99
75
83
78
84
91
109
78
93
106
70
89
107
108
76
93
107
106
72
98
84
92
95
109
97
71
75
108
85
89
89
92
71
109
84
79
88
83
82
82
91
78
101
70
101
93
85
76
85
98
76
71
101
95
75
101
81
91
91
78
88
71
94
80
73
109
78
90
104
83
78
80
89
76
97
103
75
88
79
105
81
78
95
90
85
95
97
92
102
100
75
80
76
82
103
78
81
77
99
79
82
91
89
97
86
75
88
75
94
102
91
90
86
76
96
99
83
98
91
97
86
91
84
73
80
92
94
101
70
84
90
102
87
108
91
101
106
100
83
107
102
102
87
72
109
102
102
89
104
82
80
93
73
103
84
107
109
93
90
108
96
99
82
70
78
93
93
92
87
85
107
80
82
73
84
98
85
76
91
94
76
102
95
73
80
96
76
100
82
83
83
92
104
81
93
80
103
79
93
93
91
80
78
80
98
85
98
82
71
92
102
80
94
87
90
83
75
95
85
84
72
72
96
109
78
78
98
101
108
88
108
106
102
101
86
99
80
100
82
94
75
72
94
88
70
100
96
107
89
83
78
101
102
99
107
79
82
99
89
82
74
74
99
89
73
98
73
91
81
78
74
71
80
79
101
86
85
85
97
75
99
84
94
78
101
85
91
97
74
87
90
74
108
85
80
99
75
105
73
102
80
97
100
101
78
90
106
73
107
91
85
89
88
107
79
78
109
84
96
108
97
98
109
76
72
95
85
96
78
97
109
78
74
79
102
88
95
104
93
91
71
84
108
79
81
79
72
94
93
107
75
105
109
100
74
79
78
82
73
79
71
83
77
105
74
72
98
72
80
73
70
90
74
82
102
99
77
96
97
94
70
79
106
102
102
102
105
92
87
86
99
98
104
78
97
87
94
74
95
76
108
101
94
79
75
101
100
109
77
78
82
102
79
106
86
83
102
71
74
107
107
89
109
71
97
90
105
90
102
103
92
101
73
109
83
82
83
108
76
103
81
98
83
101
105
83
79
98
106
80
93
84
81
85
78
103
82
80
85
81
91
86
99
83
79
72
70
106
98
87
79
104
88
107
100
93
99
98
102
105
101
79
107
94
74
73
94
98
97
78
77
75
109
72
99
102
71
86
79
97
87
78
70
95
75
98
85
92
70
96
89
98
100
102
90
83
93
94
77
104
105
86
97
97
75
92
76
86
89
88
103
93
82
82
95
109
89
85
86
99
98
76
105
107
98
85
75
89
107
83
99
104
104
72
97
107
102
74
94
90
76
77
108
71
109
98
100
82
107
103
103
98
94
70
79
101
101
90
95
105
100
96
72
107
94
91
77
81
85
98
73
99
81
101
72
79
93
70
107
86
104
109
104
104
90
95
74
95
77
95
84
75
95
109
100
81
109
95
86
82
89
101
109
97
95
89
73
93
85
103
102
104
73
73
74
71
95
94
73
99
91
108
84
71
76
99
71
90
106
100
74
95
98
82
83
100
103
96
81
73
91
76
100
73
78
98
75
93
101
83
102
87
71
87
70
76
76
89
89
94
72
83
90
105
79
74
105
100
96
82
71
98
71
109
101
82
70
80
101
75
91
71
72
108
88
90
73
75
79
95
99
109
100
91
103
86
88
99
72
104
99
80
75
73
98
106
72
96
73
108
70
73
98
97
87
90
71
92
87
100
100
102
75
94
81
108
71
102
103
79
105
90
88
97
108
102
99
76
79
102
104
93
80
71
74
89
91
105
75
94
95
87
84
109
82
106
93
71
76
83
89
70
82
80
86
109
76
81
100
90
81
99
107
99
81
84
74
79
76
104
77
95
89
100
87
85
105
105
80
75
93
99
73
78
101
83
70
92
82
81
90
77
86
86
73
103
83
81
74
100
74
73
76
95
101
74
108
108
78
99
99
72
74
72
76
105
80
83
71
95
70
72
103
76
86
96
99
95
101
87
107
103
101
106
105
78
83
75
83
100
99
80
78
78
106
96
93
87
93
79
90
77
104
84
83
71
74
73
73
78
87
100
77
105
93
76
108
77
91
77
77
84
95
95
104
78
95
75
74
78
90
97
78
79
89
78
78
86
104
97
98
89
89
72
103
80
90
71
76
75
101
105
98
101
98
105
74
79
96
91
91
88
97
87
76
84
87
86
87
106
89
72
102
82
83
77
106
102
93
82
74
81
82
79
89
70
75
78
99
98
93
79
105
92
97
82
83
84
75
108
70
106
101
109
102
104
109
97
78
75
108
71
109
70
72
102
91
71
76
78
100
86
102
78
84
91
90
106
76
79
101
95
84
94
85
74
82
84
87
93
74
86
104
76
78
98
80
72
87
105
100
73
85
75
107
105
107
84
84
102
103
70
86
80
105
95
95
109
73
100
81
105
94
71
74
98
92
85
75
75
70
106
75
86
85
89
93
88
71
103
79
72
91
104
108
88
92
84
101
95
84
83
91
77
83
94
72
81
96
96
95
80
79
101
81
79
76
89
106
107
71
100
99
94
73
101
89
85
86
77
77
71
98
86
70
81
81
99
108
104
82
106
70
95
83
79
94
82
99
106
107
89
84
84
104
89
96
78
107
79
102
107
97
79
92
79
104
84
87
95
101
81
81
99
94
95
82
90
107
88
106
92
73
75
94
102
70
105
81
82
76
72
93
85
72
85
106
77
82
88
70
74
90
74
85
83
89
82
83
101
102
88
96
96
98
106
84
75
86
102
83
89
91
86
82
99
82
82
75
96
77
83
101
106
101
76
72
107
102
102
71
80
104
108
78
77
96
100
86
89
78
71
71
108
103
106
70
70
86
78
88
81
95
85
101
89
85
79
71
91
109
76
93
108
105
98
92
99
81
97
85
82
87
93
77
89
82
76
97
76
70
105
88
79
106
88
93
70
98
107
109
81
70
92
102
96
98
92
73
75
79
99
97
94
74
97
100
107
107
92
82
96
89
75
99
98
77
83
78
106
100
71
104
103
72
70
105
84
97
96
109
84
88
104
97
107
93
96
101
87
98
106
73
103
95
107
107
91
71
109
72
76
75
101
88
100
101
97
103
97
96
70
105
86
78
90
78
91
106
101
103
79
103
85
88
83
80
74
94
104
90
79
106
108
87
75
102
73
108
79
88
102
94
72
77
98
80
71
104
70
80
87
107
74
82
102
100
83
85
88
108
92
101
105
77
106
104
82
106
108
78
94
91
107
106
84
96
103
86
71
78
98
94
109
96
97
83
77
72
95
84
101
86
108
96
107
72
79
95
82
83
104
105
71
80
97
86
84
107
101
104
84
104
97
86
96
79
74
75
82
90
104
94
89
92
82
107
108
84
106
90
74
105
74
102
81
97
95
81
94
101
76
94
93
103
98
95
88
95
79
80
85
74
85
99
107
109
85
70
102
80
83
98
84
86
100
93
78
99
109
99
91
87
93
88
97
75
70
97
109
81
96
99
101
73
79
84
85
81
102
97
71
93
83
96
86
80
109
95
84
73
91
100
90
81
87
102
81
75
76
84
103
109
76
109
100
71
84
95
85
98
107
108
88
107
81
74
105
103
93
74
109
97
106
76
109
74
83
80
101
104
108
80
101
98
91
84
96
107
102
94
100
93
102
79
97
81
101
74
109
108
85
72
95
83
97
107
82
98
80
79
77
73
70
85
81
89
101
90
98
102
77
87
81
85
79
107
89
79
88
86
105
86
76
95
106
96
97
81
98
98
78
89
104
95
99
75
105
81
82
101
73
103
79
108
70
96
93
86
74
78
89
88
71
70
90
81
