rd400
400
1 4.35841e+02 5.87522e+02
2 6.02539e+02 8.01704e+02
3 8.61563e+02 9.54019e+02
4 4.44217e+02 5.53301e+02
5 7.96042e+02 7.96519e+02
6 8.89064e+01 8.38954e+02
7 2.33569e+02 8.50798e+02
8 4.76864e+02 2.03976e+02
9 4.06271e+02 6.01839e+02
10 9.54573e+02 7.85053e+02
11 5.93326e+02 9.68644e+02
12 9.46100e+02 4.32995e+02
13 8.30742e+01 6.01487e+02
14 8.61254e+02 7.54120e+02
15 2.47619e+02 6.98637e+02
16 9.63227e+02 9.65824e+02
17 1.25872e+02 5.36987e+02
18 5.63237e+02 2.07366e+01
19 5.52590e+01 6.19092e+02
20 6.91414e+02 5.76653e+02
21 2.37167e+02 7.07298e+02
22 5.83448e+02 6.09201e+02
23 4.04171e+02 9.42218e+02
24 1.57710e+01 6.14642e+02
25 2.00806e+01 6.28968e+01
26 1.96656e+02 6.13862e+02
27 9.13249e+02 4.28902e+02
28 8.28340e+02 5.84111e+02
29 4.96047e+01 4.06059e+01
30 2.71361e+02 7.36904e+02
31 9.79153e+02 7.16970e+02
32 4.89418e+02 9.57946e+02
33 8.17106e+02 2.81120e+02
34 3.32771e+02 4.66520e+02
35 2.78353e+02 9.45623e+02
36 1.68540e+02 9.74806e+02
37 8.06139e+02 5.37748e+02
38 4.45404e+02 3.06860e+02
39 3.06696e+02 5.52626e+02
40 5.55492e+02 3.59315e+02
41 1.56444e+02 1.78995e+02
42 1.40141e+02 7.04084e+02
43 9.63235e+02 4.42629e+02
44 4.60829e+02 2.55503e+02
45 3.85534e+02 4.87846e+02
46 9.31464e+02 1.98146e+02
47 2.79893e+02 8.96021e+02
48 3.31283e+02 9.23481e+02
49 3.35356e+01 8.89860e+02
50 5.11528e+02 6.04103e+01
51 2.32874e+02 3.27742e+02
52 8.70562e+02 7.47862e+02
53 1.26307e+02 2.70835e+01
54 2.57158e+01 3.84711e+02
55 5.50990e+02 3.17710e+02
56 4.21545e+02 6.69856e+02
57 6.99395e+02 6.41832e+02
58 3.06059e+01 8.81315e+02
59 4.86626e+02 9.87924e+02
60 5.47886e+02 8.70165e+02
61 7.64190e+02 2.27841e+02
62 4.89340e+02 8.85471e+02
63 9.08764e+02 4.83318e+02
64 1.95225e+02 8.21483e+02
65 1.71854e+02 1.11942e+02
66 5.99164e+02 5.87500e+02
67 1.32524e+02 5.07626e+02
68 3.27208e+02 8.68800e+02
69 2.67929e+02 7.88352e+02
70 7.92919e+02 1.36517e+02
71 1.56993e+02 1.87479e+02
72 1.86101e+02 9.03489e+02
73 7.45996e+02 8.18744e+02
74 6.72670e+02 1.41516e+02
75 7.95061e+02 4.96701e+02
76 2.98827e+02 7.96840e+02
77 9.16001e+01 3.78018e+02
78 9.17898e+02 1.05225e+02
79 3.70272e+02 2.74581e+02
80 7.89206e+02 7.38168e+02
81 8.00350e+02 1.58589e+02
82 7.48357e+02 5.37031e+02
83 4.86979e+02 8.85907e+01
84 1.48737e+02 9.51072e+01
85 2.31984e+02 1.01310e+01
86 9.72905e+02 2.20419e+02
87 4.05600e+01 2.59589e+02
88 1.92470e+02 2.92712e+02
89 2.40393e+01 5.09808e+02
90 3.16686e+02 3.11822e+02
91 4.94944e+02 1.63270e+02
92 5.25118e+02 6.81256e+02
93 8.35669e+02 8.82708e+02
94 7.75205e+02 1.81054e+02
95 1.09477e+02 2.73525e+01
96 6.53011e+02 6.71869e+02
97 6.28285e+02 1.97058e+02
98 1.94865e+00 7.12335e+02
99 7.30640e+02 4.46995e+02
100 5.80371e+02 9.33465e+02
101 3.77453e+02 8.63505e+02
102 2.58125e+02 2.51372e+02
103 6.59297e+02 6.93415e+02
104 7.00979e+02 4.39308e+02
105 8.01207e+02 3.27664e+02
106 7.55117e+02 5.81702e+02
107 1.68354e+02 7.74785e+02
108 6.07710e+02 6.73196e+02
109 5.69788e+02 3.59946e+02
110 5.05772e+02 7.95094e+02
111 6.92786e+02 4.75055e+02
112 6.15258e+02 4.16034e+02
113 4.33068e+02 8.54106e+02
114 2.26997e+02 1.49199e+02
115 3.26410e+02 6.15676e+02
116 7.56359e+02 9.97073e+02
117 1.75187e+02 5.51629e+02
118 2.07262e+02 7.53080e+02
119 1.27313e+02 9.86134e+02
120 2.45176e+02 5.95849e+02
121 3.68488e+02 3.22474e+02
122 6.18453e+02 8.08454e+02
123 2.84623e+02 9.05817e+02
124 3.47487e+02 9.32543e+02
125 9.42046e+02 7.33577e+02
126 9.23029e+02 4.10170e+02
127 1.53759e+02 2.30999e+02
128 4.76331e+02 2.53181e+02
129 2.32085e+02 5.88069e+02
130 4.39629e+02 8.19344e+02
131 9.59404e+02 3.82332e+02
132 6.59332e+02 9.89174e+02
133 4.75220e+02 4.22920e+02
134 7.34709e+02 7.61660e+01
135 8.44594e+02 8.56238e+02
136 1.02508e+01 8.29527e+02
137 3.59094e+02 6.88825e+02
138 9.01100e+02 2.07153e+02
139 6.07208e+02 7.78844e+02
140 6.82389e+02 8.47105e+01
141 8.40931e+02 7.57357e+02
142 4.49959e+02 8.83516e+02
143 7.25650e+02 4.02263e+02
144 8.82698e+02 1.49994e+02
145 4.29870e+02 2.29253e+02
146 9.80879e+02 8.21977e+02
147 5.78122e+02 5.45104e+02
148 5.41690e+02 8.18375e+02
149 5.09211e+02 1.64053e+02
150 8.75589e+02 2.51226e+02
151 1.01219e+02 8.20450e+02
152 4.85894e+02 5.47970e+00
153 1.34000e+02 2.28874e+02
154 1.67243e+02 9.43593e+02
155 1.56372e+02 4.45891e+02
156 2.67979e+02 6.90196e+01
157 4.76475e+02 7.11843e+02
158 4.56946e+02 8.09262e+02
159 2.17245e+02 2.01127e+01
160 1.65471e+02 8.11813e+02
161 3.81612e+02 4.57549e+02
162 3.10765e+02 2.20815e+02
163 2.19756e+00 2.58493e+01
164 1.35318e+02 5.79262e+02
165 2.57714e+02 3.32927e+02
166 6.78108e+02 5.46502e+02
167 1.76011e+02 6.11721e+02
168 5.60389e+02 3.31015e+02
169 4.16783e+02 5.21535e+02
170 8.52354e+02 4.20312e+02
171 8.50689e+02 3.21301e+02
172 7.45771e+02 5.70821e+01
173 1.04725e+02 5.88780e+02
174 6.43447e+01 8.70233e+01
175 4.17205e+02 1.94188e+02
176 8.84474e+02 5.59131e+02
177 8.68707e+02 1.80065e+02
178 2.62003e+02 4.25604e+02
179 6.69764e+02 6.62314e+02
180 4.20178e+02 3.44287e+01
181 4.24972e+02 2.39973e+02
182 6.15069e+02 4.82106e+00
183 9.67473e+02 2.35618e+02
184 1.80640e+02 9.63276e+02
185 1.53897e+02 2.53897e+02
186 1.38308e+02 5.44775e+02
187 2.38826e+01 2.40295e+02
188 7.01018e+02 4.34543e+01
189 9.51537e+02 7.92325e+02
190 1.90116e+02 9.77048e+00
191 3.47579e+02 9.97518e+02
192 3.31085e+02 8.82753e+00
193 5.47387e+02 2.04852e+02
194 7.76794e+02 2.91288e+02
195 7.56586e+02 9.17899e+02
196 1.72306e+02 7.72747e+02
197 8.57052e+01 3.36732e+01
198 9.04883e+02 1.26216e+02
199 8.75416e+01 3.89280e+02
200 2.19732e+01 1.02510e+02
201 4.17302e+02 5.81199e+02
202 2.05641e+02 4.77219e+02
203 4.86743e+02 6.25481e+02
204 3.72177e+02 7.79249e+01
205 1.17937e+02 4.80467e+02
206 2.95533e+02 9.23189e+02
207 8.79339e+02 9.67331e+02
208 8.89914e+02 1.07701e+02
209 6.36977e+02 8.52552e+02
210 3.82491e+02 9.61738e+01
211 1.34598e+02 4.16191e+02
212 7.59957e+02 8.14020e+02
213 4.45069e+01 9.40863e+02
214 2.44594e+02 4.73987e+02
215 6.42573e+02 5.89530e+02
216 2.28193e+02 5.37552e+02
217 6.45769e+02 3.66176e+01
218 8.81955e+02 4.36361e+02
219 6.80574e+02 1.56194e+02
220 8.11997e+02 4.66210e+02
221 9.63481e+02 5.84969e+02
222 3.12678e+02 6.11344e+02
223 8.53959e+02 6.21638e+02
224 5.18363e+02 9.89629e+02
225 2.72482e+02 2.02425e+02
226 7.62214e+02 7.51456e+02
227 6.48783e+02 6.03790e+02
228 7.83667e+02 7.42083e+02
229 3.99475e+02 1.92268e+02
230 3.24988e+01 9.38751e+02
231 8.14209e+02 4.36493e+02
232 2.91053e+02 2.92049e+02
233 6.07013e+02 1.36116e+01
234 9.27453e+01 4.33967e+02
235 7.69072e+02 1.82917e+02
236 1.75856e+02 4.08861e+02
237 3.44656e+02 3.88185e+02
238 2.27183e+02 3.43604e+02
239 4.91148e+02 3.28614e+02
240 2.55217e+01 6.69796e+02
241 7.89060e+02 1.80381e+02
242 9.80725e+02 7.35090e+02
243 5.81823e+01 2.07452e+02
244 1.95262e+02 3.04483e+02
245 5.43707e+02 9.96057e+02
246 5.57170e+02 3.78511e+02
247 2.56513e+02 6.06643e+02
248 8.05435e+02 3.72793e+02
249 4.62037e+02 4.17062e+02
250 8.18209e+02 6.29891e+02
251 4.15460e+02 8.23742e+02
252 2.03288e+02 2.80220e+02
253 3.25896e+02 9.07590e+02
254 5.12472e+02 9.06526e+02
255 8.26909e+02 8.02719e+02
256 3.74105e+02 4.94356e+02
257 5.99164e+02 6.19972e+02
258 3.27353e+02 3.84372e+02
259 3.60033e+02 1.75038e+02
260 8.09911e+02 7.58316e+02
261 2.60672e+02 2.13383e+02
262 9.34248e+02 6.85015e+02
263 1.76023e+02 3.65196e+02
264 6.06972e+02 3.55066e+02
265 6.67645e+02 8.10279e+02
266 8.52864e+02 8.24650e+02
267 7.46320e+02 5.60444e+01
268 9.35555e+01 5.31101e+02
269 8.18774e+02 6.06902e+02
270 7.46616e+02 4.91772e+02
271 2.31083e+02 9.60553e+02
272 6.83546e+02 9.30491e+02
273 4.31006e+02 6.85786e+02
274 7.09830e+02 5.61077e+02
275 4.52184e+02 6.63382e+02
276 3.84806e+02 8.12568e+02
277 8.86343e+02 4.94442e+00
278 5.25835e+01 2.71001e+02
279 1.52733e+02 9.51553e+02
280 8.08889e+02 7.63527e+02
281 7.75352e+02 7.80347e+02
282 1.78085e+02 5.19553e+02
283 9.88743e+02 2.56460e+02
284 1.14258e+02 3.77412e+02
285 2.36126e+02 4.94214e+02
286 3.14339e+02 4.38079e+02
287 2.73595e+02 1.73028e+02
288 4.99968e+01 7.42733e+02
289 6.42906e+00 3.53950e+02
290 5.40007e+02 5.28659e+02
291 7.86058e+02 4.32582e+02
292 9.95164e+02 7.77478e+01
293 5.09984e+02 8.34341e+02
294 8.90360e+02 3.07257e+02
295 3.04468e+02 5.35688e+02
296 4.73917e+02 2.23053e+01
297 8.68559e+02 4.84797e+02
298 9.17265e+01 6.61356e+02
299 6.16789e+02 7.48507e+02
300 4.14131e+02 7.48199e+02
301 2.36206e+02 6.83440e+02
302 9.74766e+02 1.71802e+02
303 7.32088e+02 3.20501e+02
304 3.34192e+02 5.94830e+02
305 5.61254e+02 1.40532e+01
306 3.30116e+01 5.45758e+02
307 4.51636e+02 7.97971e+02
308 1.97287e+02 1.98716e+00
309 2.36339e+02 4.00124e+02
310 7.47866e+02 3.60265e+02
311 4.30779e+02 8.16476e+02
312 2.18230e+01 2.56845e+02
313 3.44638e+02 2.30393e+02
314 7.54786e+02 9.29344e+02
315 2.57178e+02 1.78950e+02
316 2.33293e+02 7.89181e+02
317 1.09638e+02 5.55178e+02
318 8.18496e+02 3.88539e+02
319 4.38962e+02 1.36901e+02
320 3.44937e+02 8.37515e+02
321 9.20634e+02 4.60336e+02
322 9.50473e+02 3.39817e+01
323 1.23803e+02 9.11149e+02
324 8.26839e+02 2.34883e+02
325 9.67716e+02 1.66523e+02
326 7.63859e+02 5.58636e+02
327 4.77087e+02 8.34773e+02
328 1.89042e+02 6.21271e+02
329 5.00418e+02 8.85256e+02
330 8.07777e+02 8.79354e+02
331 6.13562e+00 1.22624e+02
332 6.80526e+02 9.79535e+02
333 7.52455e+02 1.73084e+02
334 7.40572e+02 3.59870e+02
335 4.94045e+02 1.99610e+02
336 2.25447e+02 5.56169e+02
337 7.82186e+02 6.87569e+02
338 5.59929e+02 1.71432e+02
339 4.63399e+02 7.11700e+02
340 9.96077e+01 1.92347e+02
341 2.57615e+02 8.14539e+02
342 4.28894e+01 9.26489e+02
343 1.72907e+02 1.73232e+02
344 4.83206e+02 8.14332e+02
345 5.37144e+02 8.93849e+02
346 2.99018e+00 9.73272e+02
347 2.86889e+02 4.36077e+02
348 3.44571e+01 2.82052e+02
349 3.82173e+02 2.28740e+02
350 4.07053e+02 8.57824e+02
351 9.57659e+02 2.55349e+01
352 5.34254e+02 4.49898e+02
353 8.91084e+02 7.71611e+02
354 6.09907e+02 7.14945e+02
355 8.00506e+02 3.68529e+02
356 6.59450e+00 1.96999e+02
357 1.22621e+02 4.36923e+02
358 5.17930e+02 6.49464e+02
359 2.35387e+02 4.13129e+01
360 6.03560e+02 7.23736e+02
361 9.10373e+02 9.48618e+02
362 4.98328e+02 9.26571e+02
363 5.48665e+02 9.52849e+02
364 7.79110e+02 9.90186e+01
365 5.82097e+02 7.56071e+01
366 2.14744e+02 8.21886e+01
367 5.60439e+02 6.22937e+02
368 6.93672e+02 5.55594e+02
369 9.04960e+01 1.67955e+01
370 7.60500e+02 4.11841e+02
371 6.26521e+02 5.26724e+02
372 9.95853e+02 2.34577e+02
373 9.18947e+02 8.76684e+02
374 9.89579e+02 4.73211e+01
375 3.77688e+02 3.14408e+02
376 9.61419e+02 4.13034e+02
377 8.25413e+02 7.09361e+02
378 8.27455e+02 5.80479e+02
379 3.57801e+01 9.90366e+02
380 6.20154e+02 2.81819e+02
381 1.09524e+02 1.20779e+02
382 7.38931e+02 8.20767e+02
383 2.74222e+02 2.58428e+02
384 8.25408e+01 6.43565e+02
385 5.92712e+02 7.64167e+02
386 7.24782e+02 4.71166e+02
387 7.78131e+02 9.02453e+02
388 8.85712e+02 6.66382e+02
389 2.68873e+01 1.63883e+02
390 7.41314e+02 9.72935e+02
391 1.65760e+02 7.12313e+02
392 2.56231e+02 1.26549e+02
393 9.27385e+02 8.99534e+02
394 5.24925e+02 5.37248e+01
395 7.21925e+01 4.23799e+02
396 3.67230e+02 8.63354e+02
397 3.49224e+02 7.99328e+02
398 1.27116e+02 4.29147e+01
399 5.87637e+02 1.39566e+02
400 2.28315e+01 3.55085e+02
109
104
95
94
96
82
103
98
89
87
104
109
87
76
97
88
109
83
95
104
77
98
70
74
95
105
83
97
76
90
71
78
88
108
102
72
88
104
97
76
104
88
72
78
88
100
84
89
88
96
92
75
73
99
102
101
86
80
73
81
107
98
72
93
84
100
89
71
106
79
95
73
106
87
101
79
102
72
85
70
104
84
72
87
107
81
86
77
76
89
88
76
106
106
100
106
74
103
88
98
102
94
75
70
87
92
97
109
80
78
77
78
85
89
76
108
92
76
95
106
90
76
105
73
73
72
74
103
89
79
91
90
109
79
83
102
71
87
106
75
102
79
92
90
103
102
88
105
106
76
97
94
95
90
100
80
73
86
75
108
105
83
82
95
86
73
96
103
99
97
73
79
73
75
81
82
79
83
107
71
87
97
75
86
76
97
89
91
97
91
95
80
99
91
92
96
105
83
106
97
90
88
93
105
88
99
78
93
100
80
79
102
107
84
95
101
103
106
87
79
97
87
70
92
77
79
83
77
102
87
105
77
77
77
104
106
92
93
97
92
87
85
74
101
93
107
83
72
106
70
104
95
73
82
96
104
98
87
109
104
94
84
77
107
74
105
104
106
107
106
99
94
79
99
109
92
93
104
104
106
85
107
74
73
106
100
108
91
95
76
83
94
96
90
85
106
83
90
70
104
87
91
92
76
100
96
104
76
99
97
78
105
102
99
86
77
107
101
84
77
86
76
108
74
85
105
75
75
104
90
98
109
88
71
76
85
70
109
82
85
95
80
109
77
71
84
76
76
93
93
102
104
102
104
90
90
92
106
109
85
103
71
108
80
108
109
98
82
78
90
93
78
74
76
92
71
96
96
75
70
95
108
75
81
79
73
83
94
93
83
92
81
74
107
75
106
93
87
80
82
107
104
95
104
100
108
108
103
71
109
109
82
81
74
74
83
90
109
80
95
72
85
71
94
72
100
81
82
90
108
100
87
93
93
97
90
91
90
85
92
94
85
88
73
75
104
77
91
70
102
97
109
94
88
80
77
74
100
92
97
76
76
103
78
85
107
83
85
81
85
87
79
100
87
109
106
102
84
90
84
99
82
70
103
86
109
85
70
103
98
109
87
74
78
73
105
82
80
108
104
109
77
106
79
82
107
84
78
81
88
91
100
82
99
103
94
96
90
71
72
71
94
92
91
108
92
97
88
92
86
78
92
88
106
78
101
79
81
109
108
92
90
102
91
106
87
83
73
101
81
86
84
83
104
88
78
98
109
73
74
108
92
79
105
81
108
74
88
99
97
79
77
72
76
107
90
75
80
75
89
84
80
106
81
89
72
99
95
93
98
103
104
105
106
96
94
96
107
71
97
87
99
108
97
92
92
100
73
109
85
87
109
77
81
106
80
84
102
75
79
76
73
100
82
99
87
89
84
93
79
101
104
105
103
82
79
80
76
87
103
89
78
87
102
89
75
96
88
89
106
97
85
104
75
96
95
82
85
82
74
105
72
84
76
107
93
98
103
101
99
102
93
71
83
99
84
95
85
90
90
82
100
85
106
96
96
82
103
79
75
75
97
91
71
107
102
93
109
91
106
73
73
103
74
109
84
82
86
71
97
89
101
86
101
71
109
100
97
84
107
81
89
83
80
83
90
92
85
86
72
87
72
87
109
99
87
77
89
94
76
81
70
93
82
101
83
86
96
76
92
92
75
73
96
75
104
90
107
93
74
102
108
84
73
100
73
81
92
94
98
93
96
94
92
94
97
96
79
83
96
97
106
83
102
94
78
99
105
71
96
95
100
85
74
108
107
106
92
75
80
80
71
96
79
109
83
75
105
86
90
102
71
98
100
97
85
88
108
75
90
106
83
106
76
92
83
77
97
104
94
87
75
108
81
94
76
71
75
85
99
79
74
79
93
95
97
102
79
71
82
91
75
92
82
102
90
106
101
79
81
71
88
102
86
105
78
105
109
75
92
84
86
92
73
86
97
80
88
89
109
76
89
74
77
76
79
98
85
87
106
92
99
101
72
88
81
80
71
79
82
89
71
88
107
100
94
75
76
78
99
76
95
94
95
105
88
106
81
95
77
84
105
83
89
109
103
85
83
103
85
105
100
97
74
81
105
95
80
77
70
105
81
85
84
93
101
96
91
71
79
70
84
95
98
83
104
92
101
76
77
72
70
71
75
76
102
102
81
78
97
101
94
79
106
93
93
90
100
95
79
82
91
108
95
83
100
109
83
108
75
95
87
83
84
73
78
89
84
81
99
88
96
99
84
82
94
83
73
108
83
94
92
91
100
100
97
101
73
81
79
76
71
84
72
94
101
95
102
88
82
80
102
77
109
103
81
89
92
97
96
99
105
100
81
98
74
85
88
95
72
87
79
76
99
76
96
83
91
72
106
106
90
100
107
93
80
73
85
109
71
77
100
72
72
99
94
80
109
70
100
80
73
70
81
93
85
79
80
73
101
93
107
70
90
101
105
97
73
88
71
101
108
81
99
105
95
89
92
100
101
104
102
105
76
87
109
86
87
92
96
81
83
70
104
108
100
106
97
88
96
77
96
89
100
83
93
73
78
103
91
95
106
99
86
97
97
91
84
79
104
85
95
74
101
107
106
93
78
109
74
83
93
104
87
97
87
76
107
109
109
93
106
72
101
103
75
104
105
71
86
80
103
96
94
100
99
76
105
88
90
100
77
80
80
97
85
78
109
91
77
95
84
90
106
87
100
108
101
70
74
70
106
82
70
78
92
103
93
104
100
101
71
72
97
106
82
72
98
79
103
82
82
86
91
88
83
92
88
81
78
108
85
79
89
93
92
71
98
76
99
81
91
101
109
81
87
78
97
84
85
108
75
103
90
83
82
109
99
88
106
95
100
105
90
97
82
103
81
75
88
98
85
77
104
102
92
86
79
78
86
71
70
102
99
75
71
76
89
98
101
98
80
102
71
109
82
101
94
98
77
81
85
90
107
93
72
99
92
105
96
89
106
71
103
100
93
94
86
92
88
87
79
98
84
102
88
97
83
99
109
85
104
82
81
75
101
96
94
81
77
88
107
71
75
109
93
86
83
104
106
96
79
99
74
81
100
79
78
100
71
107
102
80
74
87
109
109
84
80
72
98
87
92
71
89
91
104
99
93
75
88
89
90
87
72
85
78
82
80
106
70
101
85
105
108
75
101
89
80
78
107
86
77
90
101
85
78
105
106
70
104
103
71
91
105
102
76
81
73
77
83
92
96
92
88
71
72
84
95
84
93
84
74
81
82
79
83
100
70
100
81
105
87
78
102
73
77
70
88
101
106
101
86
75
73
78
70
72
93
99
84
71
99
79
85
89
74
108
77
109
89
78
78
106
107
80
91
91
87
109
84
82
90
74
106
72
97
98
85
99
97
73
75
98
98
101
76
85
76
98
84
72
88
86
89
89
82
77
86
88
94
77
87
79
96
75
102
74
80
96
86
81
70
87
109
83
91
104
103
94
72
90
88
100
98
100
90
71
71
77
73
89
74
92
75
109
93
98
84
74
71
88
96
105
100
83
74
85
109
71
109
99
103
90
105
98
80
80
105
92
87
80
98
109
92
76
94
76
88
86
90
72
77
98
85
84
73
79
90
94
88
82
71
109
96
76
71
97
97
82
77
87
76
94
107
101
98
92
89
83
97
104
105
99
107
78
75
90
103
89
93
79
100
88
109
91
99
103
106
90
77
82
103
105
85
87
90
104
79
76
76
91
80
70
97
99
72
76
91
90
94
75
106
103
82
75
87
102
105
98
73
100
108
80
72
90
74
107
71
79
96
92
95
83
70
89
98
97
84
92
109
101
92
76
106
87
73
74
101
70
105
79
85
104
95
92
93
96
100
106
100
98
87
76
90
100
106
105
84
85
79
102
97
106
99
92
85
94
106
93
102
98
83
93
102
101
101
95
89
78
98
77
72
88
107
92
92
109
93
79
70
102
98
98
71
106
106
106
75
85
84
76
76
90
80
92
100
93
87
87
91
98
109
82
98
98
85
76
86
103
93
81
81
101
84
89
86
76
74
96
84
99
87
87
109
80
78
100
103
93
91
93
90
77
83
107
75
71
83
84
72
105
100
89
85
90
109
97
71
105
106
93
95
97
75
103
74
89
96
85
70
79
91
90
71
78
86
70
83
80
96
76
98
77
106
85
98
75
102
108
82
96
98
81
70
103
73
106
74
80
75
71
91
75
71
76
74
85
78
101
90
84
81
93
92
88
93
103
96
75
86
88
87
106
90
85
79
108
72
81
103
75
105
98
76
88
109
109
83
108
105
86
95
100
88
85
85
100
71
85
86
96
101
103
94
95
91
87
83
97
88
93
79
98
105
102
81
87
79
100
89
73
97
99
99
72
108
85
94
73
79
89
78
75
84
104
102
70
84
80
98
85
98
108
91
102
75
83
92
80
108
80
70
84
85
75
103
79
101
70
71
70
102
74
94
75
106
106
80
96
78
88
83
105
101
96
99
103
80
98
76
74
101
75
96
94
70
86
104
73
92
86
96
76
75
72
79
81
87
87
76
92
79
96
96
92
89
95
103
100
79
73
104
93
89
108
104
103
75
100
97
87
96
103
81
99
86
83
104
84
92
78
98
99
97
102
87
87
87
107
95
94
73
74
105
82
96
107
93
78
84
85
89
89
73
88
82
90
80
91
83
85
87
95
98
92
84
84
89
74
86
74
74
84
100
91
103
105
91
80
105
107
73
89
95
78
103
72
74
89
87
96
94
107
107
74
76
96
70
72
77
100
102
86
81
71
82
70
90
105
88
99
90
72
107
104
92
79
75
89
106
105
109
106
75
87
77
95
71
71
97
100
77
78
104
102
100
102
106
105
105
83
74
92
106
74
105
74
88
92
93
106
82
74
74
97
95
89
103
94
92
88
100
71
80
103
75
74
83
82
93
86
102
102
70
75
87
92
84
103
91
100
99
75
82
91
85
77
85
104
104
87
83
107
96
88
85
96
87
98
70
91
106
92
103
99
86
72
90
100
74
103
85
79
95
76
89
77
78
87
76
85
88
83
84
106
76
89
93
72
108
78
92
80
105
83
101
98
81
107
98
98
78
99
93
102
80
85
97
71
93
109
107
95
88
88
94
106
80
81
104
88
99
86
87
105
91
91
72
90
71
101
105
103
77
81
77
73
71
78
96
90
99
72
100
71
79
79
99
102
101
96
109
87
83
74
93
80
103
99
103
107
97
92
109
107
89
107
91
103
98
71
103
94
103
89
85
92
94
73
97
100
98
102
70
94
85
90
87
74
77
86
84
94
94
82
95
77
97
103
72
105
99
104
78
98
89
94
102
79
83
108
105
76
103
75
89
93
103
79
108
82
85
105
85
107
86
101
95
94
101
87
107
86
90
98
76
71
90
97
97
80
72
98
91
95
100
79
95
107
100
71
86
94
96
85
83
89
106
95
101
109
77
73
78
87
70
91
83
92
97
81
109
86
93
81
70
101
106
98
72
73
97
75
83
78
93
98
70
105
105
78
88
99
106
87
95
76
95
92
73
74
86
77
81
97
80
75
76
85
72
101
92
94
72
84
92
83
76
96
94
75
107
108
106
71
108
88
87
108
77
102
87
80
74
87
94
106
75
71
83
87
78
86
91
107
88
72
89
77
94
80
98
94
73
96
73
90
97
84
94
104
97
80
85
79
83
78
84
97
109
101
92
101
85
94
76
95
73
81
90
75
98
96
100
98
98
90
70
84
99
99
108
95
106
81
91
78
100
82
83
94
95
108
71
85
76
78
104
91
76
101
71
86
105
81
82
80
102
82
73
92
105
77
89
105
88
91
80
70
98
91
74
95
104
70
84
79
75
92
87
95
71
86
87
101
89
92
85
80
85
104
105
83
100
98
108
104
99
93
77
95
87
97
82
103
72
90
82
108
75
90
81
98
93
91
83
97
108
87
92
81
72
84
96
96
75
90
78
106
92
86
90
80
90
108
100
100
95
88
75
91
107
70
109
76
83
100
107
73
81
100
73
84
102
86
92
84
70
93
79
79
107
72
87
90
84
108
94
70
86
105
85
85
91
90
109
87
91
73
95
86
105
82
82
104
72
70
70
86
77
75
87
88
70
98
92
76
75
98
88
95
108
107
81
82
100
109
79
88
92
90
87
104
91
97
89
86
85
84
86
103
81
84
70
101
71
92
105
79
73
84
76
100
90
95
87
89
93
71
100
74
103
79
106
86
71
72
100
102
77
72
84
102
105
97
75
77
109
70
101
98
94
91
96
72
86
77
78
99
102
96
76
75
75
104
74
104
70
73
83
87
96
83
95
92
101
104
72
72
97
96
89
102
104
104
102
104
74
102
95
71
71
72
103
91
88
77
77
104
95
99
88
73
95
83
80
89
70
75
107
88
105
82
109
90
81
81
100
103
94
88
91
78
105
103
84
91
70
78
92
75
106
70
106
102
105
90
103
100
99
80
101
82
71
101
97
87
89
104
107
91
96
93
88
72
99
109
93
91
78
99
70
92
79
90
80
91
102
78
84
78
76
105
101
81
107
87
85
101
70
107
90
100
90
107
79
100
102
106
88
82
95
93
109
81
79
80
83
83
79
89
79
78
90
76
109
107
100
89
88
83
74
92
107
83
92
84
103
82
97
78
102
97
73
106
79
106
73
78
75
75
75
81
88
93
84
75
83
72
74
76
107
90
101
90
92
88
84
78
90
75
108
105
70
103
93
83
109
72
78
77
95
94
98
88
78
75
98
77
104
73
93
94
94
105
85
101
86
106
100
83
78
95
95
83
82
101
90
97
79
99
84
77
73
98
92
93
98
95
76
106
92
86
102
81
89
81
100
100
97
106
75
106
76
77
75
109
72
90
80
82
101
90
101
79
71
79
74
72
108
81
75
98
87
86
84
83
100
106
97
105
109
103
82
99
84
70
95
77
81
87
96
104
103
78
89
73
98
86
92
73
108
106
79
101
81
98
79
70
79
83
109
99
97
98
80
78
70
82
99
77
109
76
97
74
108
78
70
93
98
71
104
80
74
106
102
107
97
105
79
97
105
100
87
74
95
82
85
107
73
80
88
99
84
88
83
96
85
83
102
73
71
97
80
77
101
80
90
92
72
100
101
91
83
86
71
78
85
104
98
106
86
72
101
97
94
91
71
97
98
108
73
87
89
93
91
72
94
93
90
104
102
82
72
102
93
97
101
96
92
76
85
75
70
83
106
102
90
102
92
95
107
82
85
86
103
106
81
73
101
80
102
103
99
108
81
73
87
92
90
86
84
109
96
86
102
81
88
89
90
105
82
89
104
101
100
85
98
89
91
72
74
98
95
97
95
90
71
92
96
104
101
89
92
108
91
99
97
105
70
108
108
92
97
71
104
108
109
70
74
98
96
85
93
107
100
95
89
83
82
87
106
108
78
98
94
104
85
83
94
92
100
102
80
77
106
89
109
87
89
80
87
84
97
89
93
82
102
71
90
80
106
82
107
81
78
71
96
74
94
100
84
73
90
95
80
71
76
103
109
96
95
107
89
71
100
106
92
95
107
91
99
72
104
86
92
71
76
97
91
81
70
72
92
81
105
95
99
72
80
106
81
92
71
71
103
109
83
74
104
75
85
73
81
92
91
105
77
93
72
81
71
70
94
93
70
91
88
78
96
97
84
104
96
78
97
76
74
107
94
79
90
94
91
83
79
107
92
92
93
76
83
102
107
81
101
77
98
89
72
76
96
105
82
106
100
76
94
82
98
100
107
91
97
71
70
95
108
70
81
95
78
91
92
95
89
89
83
94
72
88
88
105
99
88
82
73
107
102
85
98
95
109
108
108
103
71
109
87
71
85
108
83
94
99
107
78
103
78
97
82
103
82
80
94
89
80
83
107
70
109
87
106
105
97
81
76
74
94
72
74
105
103
101
78
94
83
73
98
70
106
109
104
97
79
96
73
97
95
108
90
77
81
82
99
72
86
104
106
83
83
72
72
106
76
74
106
78
84
93
91
94
74
98
95
76
102
97
99
77
93
72
108
72
97
80
102
99
76
99
86
98
86
76
105
98
93
77
85
78
85
71
89
95
105
109
97
105
72
106
77
83
83
76
107
79
70
97
73
75
108
89
87
87
88
92
101
96
98
86
89
109
95
71
76
80
93
96
109
87
84
91
109
76
80
82
85
105
87
83
85
96
78
99
95
82
89
104
84
102
74
83
85
108
98
78
84
91
94
98
91
72
99
109
93
104
109
90
84
87
101
96
83
106
97
80
85
98
104
89
70
106
102
94
97
83
85
91
89
94
93
108
99
98
93
103
92
78
106
82
79
81
95
104
106
104
70
80
74
73
102
94
83
109
86
86
108
90
88
95
107
82
74
101
77
86
81
105
89
96
94
76
70
95
70
89
105
108
85
91
76
101
106
72
107
95
105
100
88
105
101
88
106
71
108
85
90
100
80
108
70
108
106
71
97
73
90
93
98
84
84
74
84
94
93
93
102
96
79
79
100
96
74
72
78
76
91
84
96
76
81
86
90
75
93
92
88
86
82
99
76
89
94
92
98
78
95
95
109
95
97
79
96
70
95
71
104
91
81
91
88
70
101
98
109
77
96
98
107
80
86
100
71
83
73
89
103
100
95
70
102
85
79
100
77
76
93
92
94
74
100
73
82
89
107
77
103
106
107
73
106
101
72
95
107
73
70
90
89
103
85
89
107
90
88
71
73
82
107
71
98
90
84
70
95
102
76
81
80
81
101
73
93
102
85
92
88
101
100
94
105
80
107
96
90
102
93
71
77
96
74
72
106
83
106
75
77
93
95
101
96
83
78
75
85
98
72
99
86
101
107
93
72
103
86
99
101
89
78
93
89
78
90
79
80
84
109
103
78
102
93
106
79
88
88
102
72
91
87
101
101
106
109
80
101
76
89
90
90
83
105
71
102
75
98
93
99
87
102
82
81
97
102
86
93
96
80
106
79
87
98
105
101
84
88
94
79
70
106
94
99
99
81
103
98
88
83
82
82
82
109
77
109
77
105
107
98
99
97
88
83
79
74
96
103
107
84
95
104
79
89
103
79
90
76
101
102
85
108
108
103
94
105
87
100
107
71
81
71
89
88
103
82
83
103
96
105
102
90
76
103
109
71
91
78
96
91
79
99
90
94
101
97
75
83
72
109
91
95
103
74
89
80
95
78
75
72
83
84
95
97
92
100
73
100
76
72
77
77
79
72
71
105
76
96
97
98
88
104
85
82
109
76
84
71
81
101
71
94
89
105
92
107
71
102
82
87
105
85
96
75
109
76
100
100
98
100
104
79
104
77
89
95
91
78
98
85
108
73
102
96
96
70
86
93
85
95
106
80
75
93
83
100
71
105
96
87
70
77
103
98
79
108
103
79
106
86
83
83
96
81
81
71
90
101
76
97
71
94
80
97
96
72
108
73
87
70
92
75
88
99
103
74
94
109
78
74
88
86
95
97
70
101
80
74
71
108
80
87
100
75
83
71
75
86
76
97
100
99
88
72
104
94
72
95
108
80
103
79
88
109
85
78
76
109
99
74
109
85
104
95
77
87
108
101
73
79
107
101
87
104
108
93
103
86
74
82
89
101
82
78
79
90
94
91
85
73
82
95
70
103
93
88
73
80
107
81
100
100
96
109
103
93
103
107
76
84
84
99
77
76
71
89
103
95
82
79
86
97
100
72
89
74
72
98
72
103
95
83
91
91
93
104
100
98
75
105
87
102
80
73
97
70
77
109
103
75
89
91
89
93
107
101
79
86
70
102
74
100
82
92
86
85
104
70
94
87
70
72
73
86
84
101
76
97
78
85
88
78
107
79
85
93
85
104
71
107
82
100
80
96
74
108
86
91
98
97
70
92
89
72
81
90
73
95
86
86
96
94
89
96
103
106
83
73
107
94
81
81
74
83
73
105
88
82
90
91
75
87
99
89
84
104
87
100
95
109
88
86
76
83
106
89
95
108
97
73
76
82
77
104
88
100
109
97
92
103
90
79
75
80
102
102
102
81
100
82
86
106
97
87
90
82
107
105
89
86
81
78
90
98
92
88
90
94
109
70
94
82
71
102
105
85
93
108
97
82
95
102
101
84
73
83
89
108
85
89
102
80
91
70
99
70
77
97
81
98
96
74
109
76
96
71
87
109
82
97
91
75
96
103
101
108
105
89
99
104
103
87
102
73
101
90
72
79
73
99
108
95
102
92
99
100
101
92
99
73
93
87
109
102
104
92
102
105
80
104
102
78
82
108
104
90
81
83
89
93
86
103
109
70
88
76
102
75
102
108
102
89
92
100
79
97
86
79
80
84
70
74
91
104
100
104
101
75
103
71
70
87
103
107
106
87
92
105
87
81
108
95
88
76
81
90
105
76
98
95
99
92
92
70
74
99
71
108
78
99
85
104
87
86
105
105
76
81
101
101
94
85
78
93
96
107
76
71
82
104
76
92
71
106
80
76
91
74
91
102
73
74
93
77
107
97
102
103
107
76
88
87
82
72
85
70
80
93
83
109
107
77
101
94
107
93
109
92
101
107
70
104
86
81
79
102
107
73
84
87
103
74
95
79
101
89
72
98
70
99
72
83
76
98
84
77
88
86
96
94
106
102
90
97
71
88
105
106
103
85
78
71
72
80
81
93
101
81
79
97
107
108
106
73
85
79
82
106
102
101
91
74
72
108
95
72
98
86
109
107
103
78
105
81
101
81
95
98
83
79
106
107
95
97
82
79
94
70
102
99
101
89
93
80
88
109
91
79
97
92
90
96
83
92
71
92
79
91
79
92
87
100
90
89
73
98
103
93
95
85
104
97
93
83
70
89
106
88
72
77
90
81
73
81
98
86
104
88
102
94
107
76
89
95
94
81
91
70
97
99
71
100
72
100
77
82
71
91
85
70
77
74
102
70
96
78
70
100
90
76
98
91
83
74
104
81
70
92
107
70
72
105
95
76
95
85
78
71
79
95
91
86
75
70
92
107
106
95
77
71
87
106
107
90
101
103
77
74
99
75
106
105
101
103
71
100
100
74
72
73
87
78
90
97
73
73
86
79
76
85
104
79
86
89
88
106
99
81
72
89
76
108
80
72
87
109
103
109
87
93
107
81
85
70
91
95
95
91
98
74
104
78
70
108
80
106
106
84
93
106
89
103
89
89
85
74
87
108
71
79
105
100
79
79
91
89
102
87
101
84
73
93
93
107
89
93
75
91
105
79
73
96
72
99
91
89
104
88
83
74
94
73
81
105
91
106
81
101
98
81
92
92
75
80
75
101
95
90
81
77
93
84
89
93
93
102
105
107
75
74
85
80
101
108
103
107
88
106
109
108
81
78
107
99
96
98
91
82
89
92
90
72
70
82
109
80
87
79
83
81
100
87
85
103
76
95
75
90
71
104
97
77
89
102
98
106
95
84
76
84
103
83
77
76
107
74
99
105
95
95
90
82
76
95
73
85
83
107
86
70
102
92
84
72
99
80
82
71
90
101
94
81
105
102
98
98
94
100
101
71
77
70
85
78
107
92
99
100
98
96
71
86
77
78
87
85
71
85
106
91
71
78
82
99
79
101
73
88
101
71
106
108
81
91
92
77
80
75
91
83
97
101
87
84
86
84
89
91
77
93
91
95
103
103
87
96
80
90
99
88
81
75
75
71
75
79
71
87
93
95
87
97
95
90
93
96
87
81
106
108
84
95
83
74
90
71
109
82
93
107
87
96
106
90
71
72
74
81
71
92
80
85
89
96
109
72
89
104
81
83
106
96
101
83
108
107
87
95
85
80
70
80
101
106
95
81
102
103
71
90
107
92
98
96
80
103
75
87
75
101
84
90
98
109
73
98
85
100
96
78
77
90
83
98
77
85
82
107
88
76
106
105
84
71
107
102
85
94
73
70
76
79
80
80
81
76
78
92
87
108
75
85
88
80
92
73
96
105
81
102
102
88
91
71
88
70
82
87
71
109
86
86
83
94
85
90
96
93
108
80
89
74
97
99
107
90
80
84
70
101
101
98
87
81
74
108
97
79
73
77
78
92
76
70
81
83
74
107
85
88
93
95
99
72
90
105
104
72
81
83
101
91
70
72
83
104
102
71
71
91
94
93
82
99
105
95
76
92
104
104
98
78
95
80
70
77
86
70
102
74
109
95
71
106
75
72
83
70
81
72
96
107
90
105
100
98
70
105
94
83
79
76
103
109
99
84
72
73
76
107
93
104
85
80
107
74
78
73
78
105
89
72
86
109
93
89
83
97
99
91
103
94
87
109
74
79
105
90
84
100
101
80
102
99
72
102
106
99
85
92
84
107
103
79
73
107
79
93
80
89
71
93
93
71
104
99
77
82
105
83
95
86
106
100
104
89
96
88
90
109
97
80
94
82
98
84
71
100
71
84
97
80
108
73
106
76
97
95
80
88
83
79
107
96
89
96
100
99
83
70
85
89
74
94
107
104
108
72
90
103
95
70
72
79
72
108
77
87
84
73
73
72
102
109
87
96
82
83
88
98
74
105
75
85
104
93
99
76
99
75
74
86
85
84
109
71
84
89
95
71
103
72
82
97
108
94
99
95
71
86
94
92
85
73
91
74
98
102
71
77
88
84
101
88
106
94
86
78
72
78
103
76
99
93
90
93
83
73
96
94
78
96
70
75
84
77
77
89
89
89
78
77
107
107
93
109
85
83
93
102
108
107
101
102
103
103
82
107
100
79
101
107
96
90
70
101
103
85
105
96
86
77
88
91
84
97
97
93
88
100
90
94
103
97
90
93
85
87
97
91
94
79
90
95
77
84
72
92
101
83
96
105
78
91
86
87
107
78
98
104
81
72
107
109
74
104
84
81
91
92
71
93
91
90
72
75
101
93
107
95
71
93
81
74
92
82
70
105
79
81
78
70
90
88
90
77
109
71
93
82
90
71
93
81
97
72
70
86
104
102
80
102
101
107
92
93
87
83
74
97
90
91
72
95
73
83
86
77
104
70
77
72
106
72
81
87
105
88
108
71
77
94
78
97
79
78
106
97
94
93
82
95
98
83
93
83
94
74
96
101
107
103
75
91
83
94
101
87
83
74
83
104
101
94
77
80
93
109
73
109
106
105
101
108
95
82
71
83
107
85
103
109
94
71
87
100
77
82
81
89
87
104
106
96
105
109
94
83
86
98
108
83
107
94
83
86
75
104
109
85
95
83
83
77
80
105
89
97
71
75
108
86
93
79
89
71
70
76
79
106
100
82
80
90
89
93
108
70
109
76
87
106
97
85
76
101
98
99
106
75
74
74
94
84
76
106
88
101
87
90
74
85
101
103
103
106
108
86
97
101
84
94
70
99
82
98
91
77
84
85
97
83
70
86
95
109
77
103
104
74
107
104
87
108
98
97
104
83
75
80
73
105
89
88
81
94
90
99
87
86
86
88
94
103
107
104
80
103
88
70
96
78
81
102
85
95
98
72
108
93
104
100
84
100
92
79
88
77
97
103
88
94
104
76
74
97
81
80
96
84
93
88
81
73
82
83
108
103
103
98
89
96
81
81
99
76
77
102
92
79
86
103
95
86
105
80
84
80
87
93
79
98
76
93
82
107
70
72
92
74
71
106
90
92
71
96
109
91
99
90
76
91
74
82
91
95
82
77
92
83
87
87
93
75
84
76
83
76
101
108
94
97
83
86
100
106
105
88
82
72
88
86
88
99
94
105
93
79
84
90
75
92
95
72
91
94
70
102
84
93
102
80
81
109
107
71
73
104
105
106
91
106
82
88
96
86
104
100
107
88
76
88
95
98
80
93
81
106
91
74
94
92
83
75
109
92
103
92
80
79
109
94
103
75
90
80
101
108
104
90
87
96
85
87
75
77
90
89
101
89
104
81
88
83
74
102
91
96
95
101
89
80
70
91
86
90
72
80
70
93
88
92
104
81
70
94
84
109
84
98
105
74
72
74
98
72
108
97
106
72
98
108
85
81
100
74
80
95
99
93
92
81
86
105
71
74
70
109
108
98
79
104
76
109
74
78
101
101
89
107
106
100
89
79
83
76
87
90
102
82
77
81
94
72
108
98
91
98
78
109
74
108
100
84
95
82
109
100
80
80
72
92
83
99
108
86
99
72
86
100
95
83
100
100
100
82
80
87
92
107
86
94
102
107
89
70
88
73
90
78
75
107
83
94
94
103
75
74
70
76
99
95
84
82
97
94
86
71
98
87
75
76
86
71
97
104
70
85
106
107
73
97
103
101
104
86
90
79
94
98
106
106
76
76
107
72
92
85
101
88
92
74
103
77
77
81
82
89
93
89
98
78
74
87
83
93
72
87
80
107
84
104
98
105
74
90
102
91
100
100
88
99
108
89
72
94
77
83
98
71
108
100
90
99
92
88
87
109
75
103
103
99
103
97
91
105
93
74
77
92
91
81
71
73
84
108
102
71
76
78
95
107
77
100
97
83
81
76
75
100
72
86
95
103
93
87
103
98
76
100
71
92
79
101
107
91
82
90
74
97
75
82
107
107
70
73
71
108
71
105
80
98
97
85
96
80
103
82
77
100
89
71
100
73
73
87
107
103
87
100
91
90
74
94
102
73
95
76
77
71
103
74
101
103
100
100
99
108
100
98
102
87
74
92
100
77
89
104
103
87
98
105
73
91
80
74
70
75
90
76
74
77
73
85
75
91
74
74
71
76
70
77
81
91
88
98
80
70
95
95
80
74
77
106
109
92
71
96
93
91
94
90
86
85
84
82
104
79
99
88
92
97
83
102
94
88
75
82
94
102
90
93
109
71
94
87
94
86
101
93
107
104
90
94
82
70
106
99
87
81
71
101
75
89
109
75
93
95
107
107
105
107
84
73
78
80
86
71
109
87
75
100
70
74
79
79
77
98
105
85
85
90
70
82
91
86
97
109
103
70
103
86
102
79
83
100
84
76
85
90
96
105
97
99
104
96
85
94
87
104
106
83
84
75
87
102
100
94
74
107
91
78
97
75
95
73
96
102
94
75
83
82
97
74
103
98
72
76
92
106
72
88
101
90
107
98
91
106
71
99
79
77
89
80
103
89
99
105
75
70
76
77
80
108
95
76
108
82
71
101
83
92
73
82
74
109
106
105
90
102
91
99
95
93
106
98
82
73
99
95
107
100
94
106
107
107
107
94
89
75
91
99
92
100
97
94
72
82
106
78
84
73
80
104
99
89
93
86
106
98
86
99
106
82
93
82
85
76
84
88
95
92
95
102
93
89
73
100
81
81
74
75
81
107
71
105
108
97
106
74
86
77
108
85
78
109
72
77
78
90
106
81
107
101
88
79
71
107
80
92
75
99
98
94
80
85
103
94
87
70
90
72
95
89
85
109
104
72
72
75
86
107
102
83
96
80
96
76
81
107
102
102
79
72
82
97
74
103
104
95
95
79
84
79
94
95
90
91
80
89
83
77
93
79
78
101
109
74
102
86
77
81
75
90
101
95
99
75
79
97
98
108
98
86
88
87
97
95
98
96
102
80
99
81
74
96
77
71
73
86
98
78
105
108
80
73
84
89
93
100
71
73
86
93
74
104
102
104
96
88
78
90
81
70
104
104
87
83
80
98
85
74
93
106
103
101
108
97
70
77
78
108
74
90
99
106
93
87
71
98
109
106
76
82
74
99
72
91
90
106
97
92
73
94
94
83
93
108
103
107
81
92
72
83
95
106
98
83
92
91
106
101
103
102
94
89
90
102
77
88
84
85
103
94
109
75
85
90
84
95
106
96
78
102
98
105
104
98
106
89
70
92
72
105
77
76
84
85
102
72
71
97
84
92
106
104
89
81
99
70
83
81
84
70
109
98
100
102
91
105
107
74
85
104
104
102
72
107
76
80
73
104
100
85
76
102
99
107
92
87
103
102
76
104
93
79
109
88
87
98
89
79
93
87
79
74
90
108
96
84
72
97
106
71
78
83
74
107
89
93
87
70
81
92
101
77
78
98
88
97
106
101
81
94
105
73
78
104
94
91
100
71
79
103
104
76
85
77
71
92
76
87
99
109
74
87
95
87
70
79
84
77
102
88
101
83
78
102
95
75
109
108
94
91
74
108
92
88
87
90
75
105
77
98
101
109
89
103
106
95
85
85
106
107
89
105
99
81
76
80
109
82
94
77
100
72
96
103
94
91
78
90
102
81
75
93
88
109
94
108
94
76
84
78
74
108
85
98
101
70
76
93
79
93
89
103
87
95
89
88
94
100
81
85
96
93
102
71
99
70
81
94
74
79
81
73
108
79
74
105
89
98
84
71
100
70
87
107
87
80
94
87
76
84
105
83
104
76
87
74
85
104
75
85
88
95
79
78
87
85
78
88
87
102
103
101
109
91
95
72
92
82
101
84
95
82
100
84
103
71
109
85
87
74
75
97
86
77
107
93
100
70
83
77
81
74
106
87
91
92
89
77
94
70
73
87
88
71
108
104
109
101
72
80
89
93
98
74
85
81
95
102
92
89
73
98
93
101
87
77
75
82
94
108
92
99
95
104
71
82
89
87
90
87
89
91
83
104
78
80
85
106
90
73
109
79
94
94
101
104
101
71
96
76
93
84
95
106
81
95
108
76
98
106
86
77
70
70
76
92
73
107
77
89
84
95
103
103
76
73
87
74
85
101
104
92
102
85
79
91
86
101
95
100
87
79
80
102
106
73
78
104
91
76
103
93
70
94
76
82
106
90
100
100
78
87
93
79
73
86
92
101
70
104
79
91
72
88
74
107
90
92
87
93
91
81
81
79
95
103
82
103
97
99
83
78
104
93
85
103
79
97
86
104
74
97
70
81
102
99
106
83
80
87
88
83
89
84
84
86
72
75
90
103
88
99
86
71
75
87
105
108
103
77
92
85
89
81
82
109
72
98
73
71
75
106
105
73
93
75
72
91
71
104
85
105
79
74
99
71
96
93
104
94
98
82
87
84
75
86
84
104
70
107
86
70
107
101
89
103
71
88
108
94
86
96
96
86
78
89
75
72
102
104
100
99
71
81
88
108
89
90
91
97
89
80
83
81
73
73
98
79
96
106
74
78
100
97
70
78
78
86
78
71
93
86
75
86
78
80
84
78
106
76
105
105
88
95
94
79
108
84
74
102
96
104
80
91
82
77
77
104
94
106
76
95
70
80
95
101
95
96
94
90
86
99
92
96
99
82
80
97
84
80
74
87
77
92
71
94
87
99
95
85
103
77
76
77
88
95
101
72
83
89
109
79
94
73
94
85
74
88
73
87
106
107
90
88
89
77
71
95
107
99
82
92
95
80
80
108
75
81
72
97
105
76
80
93
105
93
84
88
94
105
89
104
101
95
90
81
99
91
72
86
79
85
79
94
96
97
70
106
80
88
95
101
105
103
80
77
87
95
89
106
86
77
104
93
85
82
89
91
84
94
97
105
90
81
93
90
82
82
71
95
78
99
81
79
92
76
85
103
80
71
84
107
75
108
77
101
83
70
72
93
91
94
100
75
108
95
86
89
107
89
107
84
93
90
71
92
105
105
103
74
101
85
108
82
84
94
89
105
86
74
80
81
72
91
95
106
109
71
80
99
109
88
81
105
86
84
90
79
72
72
101
103
85
105
107
80
81
83
92
81
78
94
102
76
75
85
99
86
86
105
100
71
71
94
99
101
96
83
71
86
106
80
73
109
73
99
95
84
90
84
70
76
92
90
101
81
77
84
104
97
102
93
82
85
98
98
95
89
91
94
97
105
78
72
81
85
87
75
96
71
72
79
95
74
78
86
92
93
109
97
85
88
94
91
74
103
85
94
94
84
103
77
102
81
108
74
70
87
82
106
104
105
106
77
78
108
79
74
74
99
83
106
100
94
108
91
100
106
80
81
104
103
77
88
88
78
84
93
80
74
87
94
86
97
88
95
84
74
84
94
72
89
88
105
83
72
90
94
79
81
92
99
109
74
92
95
77
95
103
89
86
102
72
72
97
87
75
99
89
99
103
98
78
87
91
76
91
73
104
82
76
106
88
108
92
84
109
91
70
101
76
70
82
93
84
89
106
100
90
83
101
88
95
78
108
86
76
109
108
87
108
89
99
101
92
92
86
101
78
106
106
79
76
92
82
84
83
71
81
72
109
77
80
80
84
83
74
94
76
90
86
74
80
89
108
107
96
75
84
86
89
93
75
70
70
75
87
94
78
76
70
107
77
83
106
92
71
87
79
86
90
77
96
99
108
84
87
84
77
81
83
103
102
101
103
74
106
76
89
96
92
86
96
75
73
92
106
108
79
99
108
95
70
101
99
74
94
89
107
95
98
95
102
95
84
72
96
106
104
101
96
93
77
103
97
83
97
103
73
87
76
72
82
104
97
97
71
102
80
95
97
108
79
75
108
79
75
88
107
78
73
87
107
83
105
102
103
89
86
78
95
101
95
84
94
106
98
107
92
88
105
104
106
101
85
70
108
87
107
107
99
72
100
75
108
82
81
75
99
101
103
88
108
104
95
89
91
92
81
106
98
95
106
91
99
88
99
97
103
102
76
91
95
77
73
87
73
75
108
70
109
72
84
93
95
101
92
102
72
71
78
102
81
84
90
72
71
109
97
74
77
76
71
102
102
88
97
85
107
94
83
87
108
90
93
93
74
103
71
90
76
75
74
95
104
86
105
79
101
93
96
83
94
98
92
78
73
86
75
83
89
74
101
86
74
90
83
88
83
76
95
71
88
79
108
93
72
70
87
104
76
87
71
74
82
88
81
90
81
106
71
99
77
104
90
75
77
89
109
102
107
108
92
92
76
92
109
81
73
76
101
107
109
92
94
73
88
85
88
90
75
82
102
100
85
87
98
102
86
94
84
88
106
104
94
97
104
81
100
89
75
103
106
88
80
92
86
103
105
98
80
86
90
70
95
93
83
104
70
87
77
90
78
92
72
80
102
78
75
71
97
102
109
96
103
80
93
94
102
100
93
70
82
78
77
95
106
80
109
91
101
70
105
109
93
91
100
107
75
107
71
85
108
88
97
70
75
89
83
75
70
103
100
82
85
90
99
101
96
84
107
79
88
108
100
94
73
86
71
89
70
72
82
100
94
96
77
82
102
108
100
82
103
82
70
93
89
74
77
71
87
89
103
92
101
79
92
86
104
75
81
100
78
109
85
108
70
92
74
107
72
98
78
92
103
100
90
72
94
86
107
70
106
79
87
100
86
105
106
76
100
92
82
97
75
106
104
108
84
102
104
106
98
97
106
73
96
86
98
91
85
95
93
105
70
102
85
76
91
88
94
104
93
79
98
75
77
88
98
92
97
77
95
103
107
75
72
96
74
78
108
101
109
107
98
89
101
86
103
103
90
102
96
92
105
102
105
80
77
101
109
102
108
88
94
81
75
94
71
73
76
77
89
71
70
83
75
102
94
103
102
98
101
73
71
102
106
88
86
88
74
82
103
95
85
105
86
104
82
92
97
101
78
107
81
96
105
96
81
71
73
82
89
80
108
107
77
86
71
92
90
92
76
104
81
82
84
103
104
70
89
108
84
100
80
72
75
81
77
80
90
92
71
77
90
103
85
107
80
77
81
100
85
84
84
85
75
84
90
74
97
80
96
94
73
109
99
85
104
97
74
77
78
87
79
73
79
95
98
97
73
83
95
79
95
71
105
83
101
104
94
73
84
97
85
105
72
97
102
88
105
89
105
85
79
77
73
87
73
90
106
93
96
87
89
85
79
86
107
89
86
84
105
78
96
95
98
95
81
88
81
75
100
97
105
82
91
89
102
85
80
101
70
95
92
81
80
78
79
104
83
102
95
96
90
81
84
90
102
103
99
105
101
100
81
104
98
99
108
104
85
109
92
90
85
103
79
99
90
98
109
86
96
76
105
78
73
96
97
107
82
73
72
84
89
101
82
95
85
104
88
109
78
70
101
73
95
109
103
90
89
81
106
95
98
74
81
99
70
100
87
90
92
70
70
106
109
77
94
93
104
81
87
102
74
87
90
106
84
105
77
89
101
108
86
100
105
96
82
74
98
93
70
102
103
100
94
91
74
107
92
91
94
86
83
107
88
98
100
91
101
75
89
70
85
89
88
85
94
94
75
80
76
91
70
95
104
92
88
86
79
81
101
72
100
103
75
93
96
86
75
87
105
107
83
105
89
105
82
73
88
92
75
88
93
71
94
71
73
94
99
84
100
86
89
85
92
100
86
100
99
91
79
84
80
90
90
83
73
101
82
97
88
98
75
96
99
103
95
108
81
107
73
76
89
74
87
81
101
77
77
103
79
81
104
75
91
78
71
108
70
91
89
100
93
104
99
72
96
93
73
86
104
105
88
103
71
93
97
109
88
82
88
103
103
104
101
99
89
89
99
75
95
85
103
91
103
95
107
105
100
103
100
86
103
90
81
108
93
87
101
97
83
99
87
75
88
96
79
100
74
89
75
81
76
89
100
101
78
77
99
107
109
87
88
99
93
92
100
76
92
80
100
92
96
81
89
76
76
97
70
104
79
96
74
109
102
105
103
99
75
75
82
77
85
99
108
78
90
73
72
71
83
72
94
79
87
74
79
106
82
83
90
93
95
84
79
104
100
84
98
92
93
90
105
96
107
93
82
95
71
95
87
84
106
104
99
105
94
103
74
84
90
102
83
91
98
71
73
105
102
89
99
82
100
88
73
107
80
100
96
85
75
80
103
108
105
70
107
83
103
81
104
106
77
91
105
107
97
96
89
105
100
106
83
90
73
87
79
103
99
96
79
73
70
107
97
102
105
107
109
76
74
70
97
102
106
80
99
85
91
79
71
72
87
70
82
102
83
101
78
107
84
105
86
98
96
80
101
107
97
72
90
109
85
80
79
85
89
71
106
80
72
100
107
109
86
109
87
94
106
76
101
96
84
103
71
105
98
95
75
74
97
83
74
70
98
86
96
90
99
86
86
84
80
95
77
81
74
103
100
89
79
99
107
102
105
90
88
86
75
88
74
84
74
70
93
102
73
80
94
82
95
71
103
74
92
88
108
75
74
84
71
72
81
81
97
100
77
98
90
96
84
99
75
73
91
95
74
94
72
93
79
72
101
80
76
90
99
87
105
92
86
92
105
91
104
72
95
91
88
95
93
87
76
104
103
88
100
104
91
93
105
95
75
106
94
91
87
92
70
76
84
91
70
96
82
97
84
95
93
90
81
97
89
76
83
79
92
82
94
80
86
99
91
93
76
88
73
95
102
79
108
79
93
81
91
78
73
90
70
78
90
74
72
89
78
71
105
104
82
102
95
79
108
106
79
71
105
75
78
92
82
83
85
72
84
85
84
95
104
71
93
109
72
74
77
77
99
87
87
76
75
77
106
109
101
104
107
109
81
83
70
82
91
89
105
96
88
104
81
108
109
96
98
100
101
107
73
78
105
109
108
97
101
94
84
82
81
93
82
95
109
71
80
81
88
97
73
109
99
82
91
107
97
92
100
83
98
85
91
93
88
73
72
80
106
98
95
78
95
82
73
78
93
104
84
105
83
90
100
88
75
98
73
94
76
84
99
91
71
79
99
72
104
81
100
98
88
96
74
97
97
71
106
80
105
93
90
98
106
77
74
82
73
73
91
91
78
79
87
90
99
89
106
81
81
104
71
78
71
73
102
99
85
91
108
78
80
79
83
92
102
89
84
90
92
94
90
76
78
70
89
89
80
108
95
71
106
76
105
107
89
93
97
76
108
95
103
73
75
70
102
95
87
103
73
79
70
82
109
104
70
73
104
73
108
72
82
97
77
86
75
83
76
83
101
76
101
74
100
95
91
105
107
99
77
86
73
75
85
100
108
102
92
95
84
104
96
101
84
89
80
93
76
109
74
92
106
107
82
85
98
90
94
80
107
89
103
87
76
101
107
77
104
104
105
80
70
72
100
81
75
86
84
106
100
72
97
95
95
74
73
87
97
80
108
77
85
87
94
90
91
93
94
109
72
77
108
70
109
103
96
79
106
96
88
92
100
102
82
85
92
95
75
89
106
83
103
85
98
70
107
86
94
74
94
99
92
77
87
70
81
79
107
109
86
95
78
100
106
78
108
109
81
76
104
107
100
97
101
83
88
79
76
75
75
78
109
80
108
88
96
83
99
87
94
107
73
83
76
73
89
72
105
104
103
71
104
92
103
92
88
92
73
89
105
107
100
80
97
83
73
94
105
107
106
87
90
75
90
108
99
76
70
108
87
102
109
98
107
76
108
99
94
99
84
83
108
75
96
97
92
101
98
95
88
102
70
94
92
106
81
74
107
77
75
90
87
102
83
76
72
77
89
70
71
102
98
95
107
78
71
95
92
85
72
100
102
101
71
94
87
90
87
94
92
83
95
107
105
72
105
92
89
100
89
109
101
93
82
108
79
106
82
75
98
84
89
107
98
96
94
86
74
91
107
102
102
71
98
101
85
78
72
100
76
108
97
104
79
73
92
105
96
79
88
109
101
106
87
93
70
70
74
86
108
85
86
83
96
88
101
97
83
101
71
83
97
99
91
79
92
82
81
88
102
94
74
70
103
70
106
99
80
103
92
70
78
103
86
102
100
87
71
103
74
104
95
105
90
73
86
98
109
95
88
72
97
71
86
100
78
80
96
91
81
85
107
103
104
81
93
77
80
75
97
104
99
76
103
94
70
71
74
105
98
73
73
81
72
73
70
96
75
105
83
87
89
109
95
87
74
108
75
82
108
93
81
82
94
100
87
74
84
101
80
109
91
79
108
83
101
77
74
107
78
97
107
93
88
82
72
79
84
88
86
99
98
77
89
95
107
86
71
109
77
98
79
76
71
90
82
95
70
98
104
100
71
103
86
71
109
106
79
104
85
76
96
90
73
82
72
78
74
99
72
87
89
70
80
79
103
82
74
91
92
105
74
106
85
84
86
84
81
85
99
80
79
89
105
86
80
84
79
70
74
90
81
81
96
91
73
79
84
86
93
96
70
97
80
79
74
72
90
83
109
92
100
80
72
94
87
79
88
108
93
105
108
83
83
97
105
87
76
98
84
94
97
70
86
91
88
82
84
90
91
94
95
87
107
105
104
108
76
92
105
98
82
102
105
104
108
96
94
98
73
82
103
100
72
94
98
79
100
106
76
74
80
84
95
93
103
106
89
82
103
71
107
78
95
93
78
70
78
71
93
109
78
77
71
85
98
86
107
100
99
105
106
97
89
109
79
95
72
90
106
73
89
95
85
94
107
86
94
72
105
108
79
71
93
93
82
76
109
72
97
74
94
102
109
87
79
81
109
84
103
91
106
105
88
100
88
93
70
97
72
84
99
97
92
106
93
97
106
94
91
74
76
107
100
81
71
99
80
80
75
77
83
100
98
81
71
87
85
81
104
86
107
98
102
109
91
91
87
73
93
78
84
78
100
108
93
90
94
102
102
98
103
73
76
93
98
82
83
70
74
90
90
77
104
75
82
71
78
84
98
109
75
90
78
75
88
80
73
74
75
79
97
80
97
105
106
94
106
75
70
98
87
106
91
70
103
95
109
73
107
77
78
85
94
82
107
80
73
93
73
87
102
87
80
80
99
109
94
103
73
93
87
91
102
86
92
89
104
85
81
98
75
102
108
81
85
95
98
87
87
83
108
106
70
70
91
99
76
76
79
96
105
71
94
82
93
105
75
87
90
78
93
98
86
109
82
89
79
105
84
87
98
91
106
107
77
107
98
74
75
95
78
89
72
74
100
101
86
80
90
102
71
105
90
105
108
109
98
85
109
103
104
104
82
85
100
83
97
102
78
75
105
109
73
98
87
86
72
85
87
86
105
87
101
87
95
71
76
108
92
93
79
106
78
82
78
88
81
80
107
105
70
104
94
79
99
91
86
106
74
99
73
105
94
91
101
88
92
100
95
98
79
81
101
81
70
109
79
109
89
76
99
97
106
95
74
76
73
100
100
94
99
102
107
105
91
72
95
91
81
72
85
105
91
98
102
109
105
105
109
99
109
109
97
89
75
74
100
85
85
86
107
83
90
101
103
95
96
104
75
72
95
107
70
102
104
102
83
70
94
79
72
83
108
109
101
103
72
96
85
82
78
95
97
81
79
82
91
91
99
82
104
80
101
101
90
100
103
86
101
75
78
101
104
92
78
91
70
91
89
81
78
106
76
97
79
87
107
100
96
84
94
77
95
99
83
95
81
88
79
75
82
76
103
76
100
79
108
87
109
86
102
108
100
109
72
74
85
86
85
75
70
91
88
83
96
80
74
95
82
101
104
99
106
75
83
101
86
76
109
72
82
87
88
99
82
100
105
100
83
94
85
79
85
71
74
91
107
72
97
78
70
81
75
72
95
85
74
86
108
90
73
72
85
104
86
77
95
103
79
77
96
70
75
72
84
81
107
109
104
75
97
85
77
100
95
105
103
93
82
105
71
90
88
70
77
102
89
74
98
101
91
87
101
102
96
70
85
96
99
81
102
104
96
82
79
71
92
94
84
88
109
84
103
75
83
90
84
75
72
90
76
87
91
81
107
79
99
97
70
109
74
87
95
95
72
79
76
90
74
102
76
89
91
97
91
70
89
76
80
103
75
102
77
93
82
75
96
73
101
89
72
88
97
95
81
89
72
99
75
76
82
99
95
94
82
102
101
74
83
93
98
106
74
76
109
78
109
93
108
91
76
86
99
72
79
89
85
78
105
86
101
78
91
76
79
103
84
109
91
88
80
83
90
83
70
85
100
82
70
95
81
78
90
97
70
86
77
70
91
85
98
79
82
103
78
81
107
101
96
109
78
79
72
103
96
74
94
73
105
74
100
89
101
82
103
72
99
97
98
92
98
87
75
72
98
104
74
98
74
72
95
102
94
80
91
81
107
96
98
81
94
94
88
83
97
102
82
108
96
90
78
84
92
91
93
72
101
81
79
79
109
79
80
96
90
83
106
98
76
77
83
107
105
85
72
93
85
106
99
86
70
72
89
71
79
82
70
71
90
81
101
73
92
75
99
91
84
95
92
72
76
80
88
97
99
88
103
103
97
79
82
84
85
100
92
83
108
99
89
101
99
104
109
102
79
99
96
87
106
93
81
85
89
82
105
97
91
102
82
106
101
109
87
80
108
94
94
90
107
103
91
98
78
87
94
79
101
104
80
92
93
92
90
95
75
98
71
101
75
88
83
100
72
99
83
73
109
109
71
106
91
70
78
87
100
86
88
93
95
98
98
98
109
93
86
96
92
97
105
100
97
102
89
102
76
74
102
102
102
97
87
93
102
87
105
106
108
84
100
86
86
72
71
74
90
71
77
103
90
86
103
86
70
103
84
105
79
89
94
81
96
100
103
98
106
75
108
92
72
98
89
100
88
98
85
106
99
83
88
107
94
82
90
74
74
76
109
99
89
73
77
105
99
75
79
97
104
105
72
109
70
72
87
93
93
89
78
75
81
97
93
78
88
77
80
82
77
76
83
78
92
97
90
78
79
89
93
90
104
74
76
86
80
85
71
107
95
77
90
102
77
96
103
87
88
70
76
77
103
79
70
105
87
74
94
88
75
100
107
84
74
85
80
109
100
81
88
92
100
77
95
89
108
81
75
78
86
77
99
107
103
87
71
107
81
84
104
103
105
100
88
105
77
99
77
92
90
109
106
90
102
74
87
102
105
99
99
75
89
92
71
76
86
106
92
94
91
70
88
75
71
90
93
72
83
84
98
106
100
81
86
100
83
92
106
76
91
79
78
86
90
72
79
97
76
80
88
81
85
105
94
92
78
78
80
106
90
103
87
70
88
92
99
74
83
98
94
98
105
84
93
79
89
92
75
80
97
98
80
84
95
92
99
83
102
103
100
85
91
92
101
106
104
103
105
108
104
100
85
90
84
83
94
95
78
70
100
74
109
96
94
71
96
88
86
78
86
109
102
74
77
77
75
85
90
97
88
74
81
91
86
99
76
75
91
100
105
70
105
95
95
73
73
90
98
108
103
94
96
106
80
97
98
87
105
79
95
75
73
76
85
87
98
101
89
77
100
71
105
109
75
104
89
85
98
85
75
105
103
92
98
76
73
91
96
101
71
104
78
109
75
106
109
79
72
88
75
89
72
73
96
75
96
99
105
94
71
104
92
71
101
70
109
75
89
102
105
101
70
104
105
102
87
100
97
92
96
84
105
94
71
80
76
79
98
74
96
81
74
83
109
109
73
70
97
96
73
92
107
95
109
71
94
86
92
99
73
93
98
97
85
101
73
70
94
82
97
99
85
73
107
87
101
99
108
82
93
98
88
99
102
108
93
109
86
78
98
85
108
99
87
87
101
109
86
81
93
91
107
96
90
84
89
82
86
90
101
92
99
98
94
85
84
84
109
74
97
86
81
91
91
94
70
102
73
87
87
75
75
107
74
96
101
98
84
77
102
106
84
99
81
104
84
96
99
102
109
94
87
101
106
70
95
109
104
86
83
75
100
75
78
105
93
99
79
84
84
105
70
98
90
94
96
75
89
86
109
75
109
90
79
100
84
84
94
80
75
80
90
103
99
72
80
102
109
104
72
98
74
92
70
99
78
71
104
100
85
94
88
106
86
100
75
75
95
79
72
104
89
90
93
94
86
84
79
74
105
105
104
107
109
96
102
101
80
101
81
106
104
96
109
92
87
85
81
89
108
101
87
77
82
102
77
86
108
86
107
92
73
101
95
72
109
100
109
103
104
72
107
78
99
76
107
104
72
102
98
94
89
96
105
86
101
74
98
80
78
78
94
93
85
100
84
80
106
71
76
105
103
80
101
88
93
90
100
87
98
86
102
99
81
79
72
92
73
96
84
91
107
108
86
76
78
78
104
100
85
83
92
92
84
101
80
103
87
106
78
80
108
100
76
104
105
74
74
87
89
86
98
88
75
80
77
74
99
92
99
107
94
103
83
80
96
72
76
83
80
76
90
109
86
98
86
100
99
89
87
86
82
102
102
94
70
74
97
78
109
100
109
78
91
75
105
76
106
79
89
85
104
88
72
107
81
87
74
72
102
76
81
89
70
95
102
78
85
99
107
97
83
103
86
109
102
95
88
81
74
75
86
109
87
78
80
100
92
106
97
107
99
83
79
105
108
89
75
72
95
97
106
90
85
93
85
71
102
75
94
87
96
108
101
98
70
71
98
80
71
93
83
102
81
94
72
94
101
84
109
107
101
77
80
83
99
79
99
109
92
103
108
100
85
75
84
77
84
81
85
70
106
71
104
80
88
101
109
95
104
79
91
79
109
80
107
105
102
99
81
94
70
75
82
91
72
86
84
94
73
94
98
103
86
88
87
98
88
72
86
93
101
93
95
85
97
96
92
70
85
75
92
75
94
72
80
74
89
71
77
107
86
84
73
75
90
96
81
108
98
71
91
87
93
99
95
101
81
95
75
74
80
93
71
75
100
100
86
106
73
77
79
103
74
77
90
89
87
71
71
109
93
91
75
70
78
98
92
70
99
75
80
92
72
75
81
103
79
104
83
82
79
103
97
88
109
79
85
81
107
102
95
86
73
98
87
98
74
98
86
105
73
70
82
93
83
92
105
87
71
77
89
75
99
79
108
79
96
92
97
101
97
99
89
86
87
77
80
74
105
75
77
102
82
87
91
93
100
88
88
90
76
105
94
108
93
108
80
91
98
83
96
82
86
87
71
102
102
109
76
70
82
78
104
108
79
93
73
83
72
86
78
104
79
102
106
86
102
86
93
93
83
75
88
75
100
75
79
77
86
80
91
79
77
105
73
107
79
82
93
79
81
104
99
82
103
98
79
96
93
85
83
84
108
102
73
109
90
85
74
84
88
96
87
101
106
77
86
76
90
93
103
74
70
101
78
80
92
103
92
99
99
105
90
81
99
91
93
91
72
70
80
107
91
76
70
95
106
99
72
95
105
102
78
76
72
93
89
97
94
108
96
79
71
82
81
75
99
74
75
83
95
79
81
81
103
108
74
70
92
105
86
91
98
101
76
100
70
104
82
102
78
104
92
99
89
88
97
99
97
83
82
77
94
103
101
103
109
95
81
106
80
81
106
73
104
98
79
75
104
79
82
71
100
109
72
88
73
75
74
89
71
86
83
74
109
77
75
92
76
87
99
98
94
74
82
104
96
109
104
96
94
96
97
99
78
106
100
93
88
107
108
84
100
108
78
74
92
75
108
105
92
83
106
102
79
92
96
81
84
78
87
76
105
84
103
90
78
95
95
99
85
88
95
93
104
107
91
84
108
104
96
93
109
83
101
103
83
86
90
108
75
94
75
71
104
91
99
109
75
92
83
73
89
83
98
107
100
92
89
97
77
92
103
73
96
79
107
77
104
82
88
96
85
91
94
72
99
86
102
92
109
81
102
104
74
82
94
95
103
104
98
96
109
87
105
100
76
87
77
95
104
71
84
109
99
78
78
79
75
99
104
94
101
70
81
79
90
87
107
80
73
85
108
98
86
73
102
71
74
92
107
102
82
77
93
108
76
88
100
78
103
100
81
100
74
100
100
88
73
72
97
95
75
92
72
71
87
82
93
74
88
100
77
105
103
100
106
93
96
95
104
82
95
95
73
102
109
89
94
80
101
87
88
84
100
86
102
94
89
98
71
76
88
88
82
97
101
77
108
103
88
109
98
86
108
70
80
74
92
86
97
89
88
82
79
78
92
90
102
95
106
97
92
94
74
81
107
70
78
78
75
107
83
89
82
95
101
80
109
99
82
92
83
83
81
75
95
93
108
79
103
75
92
95
92
79
77
77
89
87
74
104
102
105
97
98
71
88
82
85
73
71
108
105
109
77
97
73
97
74
75
95
82
98
87
85
78
72
89
70
90
100
96
99
103
88
99
90
106
87
100
101
92
87
92
87
87
80
95
76
99
77
105
89
103
99
89
105
92
80
70
106
94
102
88
88
76
96
88
72
107
92
89
103
86
106
104
92
105
100
83
92
101
94
95
77
86
103
92
77
108
72
108
91
79
93
74
109
94
90
88
76
74
104
100
93
86
105
83
82
106
80
94
73
73
83
100
99
71
77
104
95
87
72
92
71
91
104
103
76
85
78
75
78
102
107
74
86
102
75
98
88
99
92
70
107
93
87
72
99
97
78
99
97
77
87
102
88
76
72
78
91
97
99
90
70
97
84
109
99
100
73
95
94
109
105
93
74
90
88
83
77
94
74
95
105
109
101
80
93
80
77
79
76
74
106
84
108
105
76
92
106
97
74
105
99
94
79
99
94
104
70
78
81
76
80
76
81
89
108
84
70
79
102
75
102
103
90
82
104
79
75
103
108
109
87
105
97
78
93
95
95
103
107
88
95
100
81
104
104
103
81
73
99
83
99
72
72
105
84
98
74
99
87
79
89
95
104
70
79
71
92
81
78
71
100
74
87
70
92
85
85
104
103
72
100
107
77
89
84
104
72
79
83
77
83
83
98
73
100
104
109
79
92
81
81
103
100
98
90
81
106
90
98
108
92
72
97
78
76
75
105
100
77
102
97
84
101
108
77
81
75
87
83
71
91
104
89
104
88
98
102
95
74
96
78
74
88
73
82
77
103
72
103
101
99
89
109
82
78
72
107
96
87
92
90
95
92
77
79
74
83
98
84
86
77
70
81
84
92
83
103
80
95
79
78
98
84
103
88
93
77
105
101
70
70
102
96
79
77
80
73
77
83
104
85
71
98
84
83
96
80
71
105
79
91
89
102
76
77
80
96
70
74
71
90
99
88
86
70
95
103
74
81
89
72
78
87
98
74
82
76
87
91
76
70
97
84
76
71
107
81
101
79
76
87
72
73
94
70
82
109
86
105
90
102
77
83
76
108
94
85
73
101
105
70
74
103
79
90
75
98
71
93
77
100
73
74
94
100
73
95
84
83
78
108
104
88
91
76
96
99
101
98
96
108
86
104
82
109
74
100
83
109
88
92
104
78
107
107
80
98
90
76
100
97
77
95
77
70
73
90
76
75
85
98
104
74
70
74
99
70
80
98
78
105
86
92
78
71
99
99
71
99
82
85
96
80
83
75
103
82
88
94
103
86
103
92
79
72
72
75
77
76
97
77
75
103
88
109
104
70
105
82
90
70
81
73
74
79
98
103
105
99
79
103
82
99
99
97
87
100
101
100
73
85
87
77
106
85
103
80
93
107
109
71
89
101
86
97
98
101
73
108
72
81
88
78
92
82
89
72
72
88
77
101
94
91
80
105
92
84
75
77
102
94
95
98
76
87
91
108
94
92
87
90
70
84
81
90
93
91
104
82
72
106
80
85
100
101
70
74
72
85
92
83
106
87
70
109
76
85
86
91
104
91
85
104
106
108
91
109
85
86
106
71
73
84
86
84
76
99
95
80
94
103
89
99
73
102
75
77
96
93
96
85
71
106
75
103
100
97
102
76
109
83
101
86
107
108
78
108
109
93
75
90
79
97
76
108
75
107
102
93
97
88
89
83
100
89
89
78
85
84
90
73
100
98
74
79
100
92
81
74
79
82
100
80
89
77
99
87
89
94
71
99
94
94
88
85
78
71
102
78
108
83
103
84
91
92
104
100
94
91
71
97
74
109
105
75
87
90
95
108
98
80
102
79
71
80
71
98
85
79
76
86
106
79
108
108
96
87
105
74
72
97
96
95
95
83
97
99
78
72
104
98
103
71
90
74
92
92
76
99
89
86
73
95
101
73
90
98
102
92
75
84
91
86
108
100
85
101
77
95
88
95
93
73
78
100
85
108
86
75
96
79
83
101
86
80
79
103
89
101
98
84
80
80
78
90
74
89
109
75
109
96
92
95
72
91
89
96
109
100
100
78
91
71
90
100
99
82
104
91
105
94
70
101
78
70
105
93
92
102
85
77
105
93
107
88
79
85
80
81
83
83
78
84
109
90
79
107
87
101
78
99
82
109
89
97
85
79
76
79
80
74
95
91
72
87
76
74
91
82
89
89
103
72
109
100
77
89
88
91
92
88
83
73
99
89
107
70
95
91
88
104
79
85
75
102
75
78
71
101
84
103
102
87
80
76
95
72
109
76
103
98
80
92
87
76
94
99
84
78
107
105
76
104
104
97
95
76
75
81
92
74
74
103
102
98
79
94
95
79
91
98
76
82
76
80
104
108
73
74
93
104
88
105
104
72
77
84
85
71
70
96
76
103
100
72
90
108
93
79
98
89
88
107
109
89
104
101
88
104
93
78
94
76
71
93
85
94
100
70
109
109
92
92
86
85
76
98
81
92
96
79
82
85
76
96
100
97
100
99
102
90
74
105
93
90
80
107
82
84
78
88
77
80
79
101
90
85
80
79
83
82
80
77
78
101
78
105
89
88
71
89
83
97
95
105
84
82
90
75
71
88
83
89
103
87
77
98
73
101
105
92
81
94
87
98
79
81
96
78
106
80
90
87
109
85
93
86
82
75
87
86
93
108
91
75
75
74
104
100
98
95
102
75
73
72
83
101
108
79
72
85
105
88
78
86
87
103
109
73
96
72
85
75
107
102
94
91
79
80
102
107
77
73
73
100
94
80
102
79
85
104
95
105
77
96
97
78
78
77
93
74
76
70
77
91
89
88
99
91
77
99
71
102
99
101
72
103
77
78
94
103
90
84
101
80
71
72
75
94
92
104
93
104
105
70
95
78
88
89
108
99
84
82
77
85
91
74
77
98
88
106
76
102
100
83
81
106
102
80
102
87
88
104
71
92
92
96
99
99
71
73
71
106
77
101
87
97
77
96
86
104
102
108
103
75
98
70
109
96
82
80
104
104
82
70
105
93
103
92
89
107
102
95
77
73
86
108
100
106
73
103
107
79
95
101
97
79
84
91
103
74
83
104
98
74
99
104
109
84
73
107
80
77
70
109
109
88
74
103
85
103
104
87
70
88
92
83
88
82
83
91
104
103
106
104
92
85
90
72
89
96
74
83
81
106
101
90
97
102
78
79
98
73
81
88
101
98
84
80
109
99
78
87
72
72
86
72
78
104
103
108
93
106
107
94
76
98
86
70
71
91
84
74
99
103
101
74
82
85
87
98
72
83
77
78
103
93
80
88
72
108
107
102
99
73
91
98
97
100
102
74
96
97
75
105
87
98
107
93
99
75
94
107
81
81
73
103
76
93
78
73
73
80
109
92
90
70
90
81
80
80
103
76
92
109
83
77
71
74
99
89
105
98
104
105
87
94
97
76
73
80
82
89
83
85
109
88
105
89
89
82
72
79
72
85
83
98
77
76
92
102
77
86
107
98
93
78
108
106
85
76
76
71
92
106
108
106
100
105
73
97
79
108
75
81
89
109
108
93
96
80
108
94
90
77
99
76
70
81
94
75
78
103
70
106
90
74
101
96
89
95
82
95
108
89
95
101
83
101
97
105
84
87
79
75
73
108
79
96
74
82
78
76
106
101
78
96
94
107
101
102
92
74
108
106
96
80
101
84
109
99
96
108
74
75
87
85
106
101
88
101
89
105
108
91
108
86
94
90
104
92
70
101
85
90
102
91
76
73
84
86
71
73
82
70
105
98
74
91
94
70
78
75
83
86
87
105
97
82
76
95
70
100
78
77
101
71
90
74
71
100
86
98
90
101
79
96
97
70
90
86
92
89
89
76
105
73
81
93
107
97
106
80
98
85
78
109
107
97
86
102
82
81
81
72
77
97
102
90
107
78
85
94
108
84
97
77
74
90
104
80
89
83
78
92
75
102
78
78
104
80
83
95
76
96
86
89
96
84
105
99
77
98
91
74
95
73
109
97
79
89
101
73
99
96
80
84
82
95
86
95
82
92
88
78
101
97
109
109
76
85
102
100
82
74
94
82
76
95
102
70
95
86
72
97
106
72
90
96
102
72
77
81
91
102
95
83
101
85
102
91
88
70
78
100
79
78
93
103
91
70
84
100
90
105
88
104
93
100
107
87
103
73
101
107
99
92
70
93
77
106
105
84
92
94
81
76
86
102
103
89
76
109
95
100
72
107
79
77
85
74
98
82
109
90
76
78
97
103
79
93
100
105
109
103
96
109
95
92
70
82
93
87
96
70
71
102
106
98
91
88
88
108
80
80
89
91
107
105
77
104
96
99
74
91
99
85
77
75
87
83
71
82
71
106
78
104
91
89
79
80
101
90
80
72
85
98
82
84
106
93
79
93
90
94
88
102
107
77
82
104
82
89
74
79
109
89
79
92
84
78
103
107
77
99
109
72
89
79
97
102
80
82
79
88
76
86
93
100
93
104
88
92
88
95
94
71
70
77
90
80
90
100
75
101
99
106
77
82
83
88
84
95
71
79
86
72
104
84
81
75
73
86
78
95
73
101
100
91
99
78
87
77
101
84
98
100
71
80
74
80
108
108
77
96
101
77
92
76
76
80
101
85
78
78
76
82
93
98
106
108
93
99
94
107
93
77
76
98
72
85
91
73
93
100
100
90
91
91
103
94
105
81
88
73
85
81
90
107
76
95
82
96
74
92
72
74
89
96
89
78
103
80
73
109
108
80
103
107
81
90
73
93
95
80
106
95
94
86
73
75
101
100
92
81
106
90
76
91
99
77
106
104
84
97
75
92
73
71
96
101
79
98
97
81
78
108
100
78
81
102
88
107
73
80
70
109
79
109
98
92
105
91
103
104
71
105
89
86
102
90
87
103
100
74
80
82
109
70
76
88
70
96
79
105
96
91
106
86
87
76
107
71
84
106
102
78
88
72
75
83
73
80
98
104
90
98
93
80
102
93
77
92
109
109
95
79
106
70
79
75
76
104
86
82
92
84
97
74
70
85
82
99
100
90
83
90
95
75
96
99
79
82
84
106
109
77
71
91
103
73
102
84
92
105
107
79
88
94
87
84
90
81
85
94
93
88
81
92
92
109
105
107
105
109
91
83
87
87
79
103
94
99
94
89
71
102
107
93
90
99
88
100
108
75
109
76
84
89
101
78
88
79
89
73
108
77
81
101
99
100
96
82
72
85
103
81
103
103
85
108
72
81
85
98
108
92
104
85
99
77
70
72
101
98
79
75
87
91
102
105
81
83
104
92
77
70
74
79
83
93
105
91
83
96
93
94
98
84
89
106
88
85
108
98
89
93
107
106
76
78
91
87
80
101
98
85
109
95
85
96
90
88
79
100
91
73
73
97
109
98
101
89
85
89
79
92
77
97
102
79
73
71
103
96
82
81
99
84
88
72
82
77
93
95
88
102
95
108
79
105
87
70
86
92
104
88
72
70
105
102
71
88
79
77
90
98
85
80
109
99
77
80
81
86
108
75
91
89
97
80
81
80
70
106
107
81
98
83
86
105
93
99
78
79
78
89
93
95
106
73
79
106
86
103
89
99
95
83
81
101
79
102
95
100
91
99
92
98
90
97
81
91
89
73
76
90
77
107
87
93
73
93
74
95
97
102
106
108
93
72
97
82
106
101
79
87
85
108
81
77
98
75
74
85
92
87
104
91
94
74
72
78
81
108
108
75
103
93
108
82
71
90
75
89
106
86
75
79
86
91
99
76
104
81
104
88
72
85
82
81
95
70
81
72
84
85
95
70
96
99
72
83
70
88
87
88
71
72
91
78
84
80
74
94
93
74
108
106
107
85
75
75
89
105
73
101
96
89
107
104
107
105
85
73
88
98
102
104
96
100
109
99
104
100
100
99
73
78
84
77
78
93
106
75
84
96
80
84
78
87
79
74
73
87
83
98
77
73
103
82
86
74
75
78
82
78
83
83
108
103
106
95
96
93
87
88
88
94
87
77
70
96
107
74
75
91
91
104
87
85
82
100
82
97
92
71
90
96
78
78
94
106
85
74
83
86
98
90
108
72
101
80
80
75
95
106
95
96
76
90
108
93
72
80
74
73
105
93
104
79
102
84
94
82
70
93
77
80
84
81
106
97
82
77
107
81
108
88
109
108
78
103
94
74
80
100
70
108
73
91
99
86
74
109
101
100
100
95
71
74
92
101
88
95
102
108
73
74
81
94
103
88
73
97
83
108
74
74
80
80
108
70
100
74
90
97
99
83
87
106
97
92
83
71
87
106
82
101
88
85
94
75
107
83
94
103
107
82
95
89
70
101
106
79
83
78
102
72
104
101
88
101
107
88
80
93
79
100
85
80
73
82
99
86
91
94
76
97
80
100
78
96
105
92
84
86
96
80
103
90
76
106
102
88
92
100
99
104
87
82
96
77
107
98
81
97
85
104
76
103
97
107
71
73
97
92
81
83
91
88
92
80
70
76
89
83
86
96
76
72
81
79
105
77
96
109
71
75
90
82
93
89
85
71
83
75
70
86
105
95
107
71
85
88
88
96
81
102
71
101
108
102
99
104
74
102
78
83
78
76
97
99
71
95
101
71
96
94
96
106
85
72
82
93
91
76
96
96
87
73
72
74
74
104
78
104
91
105
79
106
85
76
76
92
74
90
97
92
81
98
70
95
76
103
70
105
77
106
71
92
98
93
81
80
94
72
82
101
90
71
105
93
108
75
81
85
95
96
97
93
99
71
74
70
94
85
72
76
75
92
76
108
82
104
73
79
97
85
71
95
73
95
84
98
99
89
81
109
109
90
84
75
96
93
106
102
100
89
104
93
86
88
89
79
80
75
90
70
106
70
108
71
104
96
98
106
99
102
92
93
93
73
75
109
95
92
79
80
77
90
93
77
93
104
100
85
83
95
90
94
105
101
74
109
109
100
90
76
83
75
90
108
93
83
103
93
72
85
96
91
105
106
80
83
80
83
78
103
108
74
74
86
94
97
105
88
74
90
91
72
108
102
74
75
103
97
102
104
108
70
95
80
89
88
74
88
72
89
95
101
105
102
90
87
74
106
89
73
86
105
70
88
84
88
94
81
98
100
88
88
106
72
90
95
84
92
73
108
75
82
71
70
92
73
82
89
100
80
74
87
106
83
107
97
77
74
76
95
71
99
79
101
90
100
106
79
106
101
93
94
100
86
78
91
108
101
105
91
77
99
100
75
93
95
90
102
103
82
109
93
85
109
97
70
109
72
95
97
91
101
80
94
96
93
83
99
106
105
97
93
76
99
94
101
95
109
90
101
88
90
81
106
84
92
72
76
74
94
105
100
80
75
72
78
73
103
103
87
77
109
104
72
97
72
97
100
88
85
84
78
106
72
103
87
109
87
98
95
97
101
71
73
80
72
87
76
86
108
98
94
85
96
71
100
108
98
77
88
105
71
80
82
93
70
73
91
79
70
71
93
99
84
75
71
84
106
107
80
87
84
100
73
75
84
77
88
86
105
106
106
89
100
70
105
103
83
85
87
82
81
89
89
95
85
75
71
91
98
85
99
93
87
101
96
101
88
100
85
70
101
71
90
89
82
94
74
90
79
84
82
70
80
103
97
109
103
72
96
85
72
108
92
95
102
76
106
102
100
74
74
77
79
86
103
87
82
104
102
93
106
94
101
108
83
96
78
78
106
90
91
90
76
82
76
78
79
75
96
75
88
80
80
81
93
109
74
93
100
99
108
73
76
83
71
107
98
109
71
104
78
81
96
83
71
77
91
80
100
96
89
102
109
94
103
84
105
93
74
99
81
88
77
85
85
106
73
84
85
78
93
86
83
92
70
79
87
94
88
79
75
108
94
70
81
108
70
86
73
78
80
72
103
95
97
81
93
101
75
94
100
75
79
101
73
100
70
102
94
77
84
90
78
78
102
91
101
98
93
109
95
96
92
92
88
80
87
77
76
82
92
81
72
75
86
87
80
89
79
97
98
90
102
98
75
88
74
70
98
95
94
107
98
90
109
95
91
91
87
98
90
90
101
109
79
71
97
75
80
75
98
71
77
84
87
94
92
88
105
86
78
77
70
87
105
101
76
73
79
103
74
87
103
108
77
75
75
80
98
73
90
82
94
104
94
85
70
94
80
87
84
99
82
74
88
82
70
74
80
91
94
70
104
85
99
98
85
106
82
84
78
90
108
85
84
109
101
83
92
99
95
85
99
86
103
87
90
99
72
78
81
77
71
86
104
74
79
74
100
98
78
91
71
93
103
70
84
100
105
95
73
100
81
74
93
78
84
75
84
98
103
100
73
85
98
104
107
80
73
77
99
76
93
95
109
90
108
83
77
88
100
105
92
89
78
94
91
107
96
80
95
80
75
91
78
85
95
91
89
79
75
75
90
94
73
94
79
106
73
109
88
102
101
96
78
98
94
88
84
86
109
92
99
107
108
98
88
76
94
89
81
85
83
108
88
99
81
82
70
76
96
76
100
80
100
86
78
88
81
105
89
78
82
104
95
101
82
82
80
91
87
96
83
108
91
104
77
72
93
97
81
80
71
79
74
85
105
89
77
98
103
89
106
91
71
76
91
70
101
91
94
104
82
105
80
75
90
94
83
87
109
91
89
87
96
79
81
78
93
90
82
97
72
80
94
78
108
72
73
77
85
85
89
78
103
84
80
99
95
95
103
79
104
90
102
96
90
101
90
73
86
105
78
83
76
94
93
77
96
83
86
106
83
104
90
82
78
97
82
107
76
92
76
105
72
93
79
99
93
103
92
104
101
102
89
98
100
82
96
91
70
71
85
109
109
91
96
70
87
104
95
75
96
90
88
84
85
75
101
81
89
102
104
99
106
104
106
86
86
77
95
93
75
90
76
95
100
103
100
89
83
96
86
84
99
84
91
80
77
77
87
81
102
89
86
80
102
72
81
86
92
71
89
109
88
85
107
71
97
92
93
99
96
106
80
108
85
105
102
77
81
83
70
107
84
82
109
89
95
102
95
106
108
72
95
90
85
104
83
101
83
82
76
85
80
86
84
86
86
72
81
76
89
109
73
87
107
87
102
78
95
82
108
98
104
72
88
76
82
106
76
98
97
73
104
70
81
100
91
95
78
98
83
76
85
106
73
102
75
97
88
109
108
108
79
102
78
95
101
76
88
85
93
101
77
96
74
94
101
100
85
97
93
95
77
93
102
100
93
95
100
72
100
80
96
108
105
103
104
84
70
73
77
103
95
78
86
97
74
78
91
109
97
107
76
87
86
72
90
105
70
74
94
100
82
103
82
73
106
85
85
88
82
83
91
105
89
78
83
82
71
85
106
80
72
85
97
73
95
84
75
106
92
72
90
100
104
88
98
100
105
78
101
91
73
75
72
107
92
91
86
92
98
91
108
109
97
88
93
71
87
81
87
78
86
96
94
105
97
93
71
109
86
84
96
77
101
80
94
77
72
80
78
102
90
88
80
100
85
83
105
71
95
80
88
87
77
75
99
107
91
85
75
100
98
70
102
93
107
82
99
86
92
74
107
74
104
77
78
85
83
94
75
98
79
104
93
99
88
95
106
74
95
97
93
81
101
101
103
109
78
98
89
72
96
91
101
86
76
105
86
104
108
90
101
96
102
81
93
92
96
78
74
102
108
72
101
91
86
79
75
75
92
71
95
73
109
74
92
75
101
109
104
76
88
94
78
96
100
100
106
80
92
79
82
79
83
98
91
75
78
95
98
72
85
89
109
74
83
87
88
73
83
80
84
90
70
82
93
100
106
80
91
80
109
83
76
108
99
103
87
89
76
98
108
76
74
89
83
82
89
91
98
88
103
90
74
82
86
87
100
74
104
109
104
99
107
89
87
70
109
72
106
85
81
74
97
87
82
109
89
75
80
93
80
104
97
107
99
108
82
84
98
91
94
99
89
107
77
81
91
93
89
108
90
87
77
78
98
88
87
104
71
99
71
102
99
96
80
100
101
71
71
73
79
71
98
107
86
78
108
76
87
105
70
99
80
94
87
102
85
104
94
103
85
75
95
108
76
97
109
92
89
85
96
102
91
93
95
108
71
85
79
97
93
74
108
70
93
100
103
75
92
87
74
76
99
99
88
105
73
91
80
107
80
100
107
108
78
71
75
95
109
72
95
96
100
87
108
92
103
95
95
84
77
109
80
70
89
91
105
93
92
86
80
74
72
77
96
74
88
75
95
82
86
79
83
97
100
105
78
109
88
72
76
97
90
90
99
77
87
107
74
78
75
74
77
80
107
72
88
73
81
98
82
71
91
105
100
109
86
89
89
106
86
94
89
75
98
78
105
106
78
90
101
86
96
78
88
85
87
84
107
104
89
100
92
86
85
80
97
107
72
84
86
82
91
107
99
81
76
72
98
92
100
98
87
101
82
100
89
98
94
83
88
95
72
97
103
86
98
74
83
76
107
85
93
93
70
109
85
99
106
105
95
107
83
89
99
81
89
74
95
94
87
83
96
70
95
97
105
79
75
104
106
78
87
99
109
108
70
77
93
73
91
73
104
104
97
104
95
108
76
81
107
89
90
77
90
86
76
107
74
97
73
73
109
83
93
109
86
86
77
107
107
92
71
80
76
90
88
86
107
77
85
104
108
83
102
105
71
78
88
96
91
84
75
103
85
91
107
92
73
99
106
71
81
84
102
77
100
73
103
93
88
101
99
89
91
101
85
103
86
78
92
104
91
73
88
72
89
84
99
104
70
108
77
73
92
71
72
74
87
86
101
107
94
74
86
98
87
95
70
102
96
103
70
99
99
72
106
94
74
80
107
105
92
87
78
88
86
87
85
93
102
96
76
89
76
95
71
84
105
103
97
104
92
88
72
89
99
95
88
87
95
87
85
94
100
102
93
85
71
107
93
87
72
95
83
71
98
73
100
87
105
87
79
107
100
81
81
97
106
88
74
76
81
103
72
89
85
105
82
97
103
83
80
88
102
99
98
85
82
82
70
75
102
102
102
104
93
107
73
108
81
90
104
100
88
98
75
96
96
87
94
89
92
96
71
87
80
109
89
82
97
105
85
80
97
92
71
86
73
101
103
98
87
86
98
105
99
87
88
92
85
96
71
88
89
89
104
78
77
92
104
88
82
94
82
101
73
98
82
103
80
71
101
83
85
99
88
81
91
79
70
101
107
84
70
93
100
94
76
75
86
105
95
93
91
90
107
107
87
71
80
97
89
105
98
87
107
105
90
101
95
89
77
82
90
100
108
87
70
80
92
79
98
83
102
82
92
76
74
75
90
99
103
102
109
92
102
109
96
88
96
101
104
101
93
93
91
71
87
71
70
86
70
98
98
98
101
87
102
100
109
98
91
95
89
108
92
103
97
103
76
89
106
105
109
83
86
84
94
109
105
109
109
96
76
92
101
78
77
91
81
91
78
107
106
82
92
107
93
83
99
75
81
107
89
72
103
108
104
104
74
71
72
73
106
87
93
108
100
72
108
72
76
104
83
77
102
84
90
77
96
70
101
74
76
78
83
92
101
79
108
105
96
108
78
106
78
74
80
100
70
95
99
100
80
91
94
103
103
78
89
97
103
91
93
99
80
99
90
107
104
85
88
103
80
108
98
81
72
81
103
82
101
83
83
104
76
93
94
106
87
79
83
70
87
71
92
104
74
97
76
102
80
92
77
81
89
88
99
95
97
93
105
71
86
93
90
76
97
101
75
94
83
103
103
93
99
76
82
79
93
96
83
92
84
86
92
97
91
94
83
98
97
93
94
83
75
76
106
104
94
107
85
83
78
71
93
78
104
73
72
74
79
73
109
95
93
83
99
77
71
89
105
106
103
105
94
93
100
80
82
91
84
79
108
104
109
86
77
81
97
94
76
95
104
83
100
93
90
97
84
78
101
102
93
73
91
89
81
87
104
98
105
95
83
98
88
94
91
92
103
77
92
84
72
70
97
70
71
96
92
82
77
91
84
95
95
109
95
102
71
71
88
81
105
82
74
75
89
94
102
105
107
99
97
106
75
73
98
107
86
78
90
102
72
102
85
107
87
72
72
103
80
86
108
93
81
109
98
75
87
102
70
70
73
76
89
96
92
78
98
89
81
88
77
91
108
109
71
107
77
72
97
101
108
84
91
78
73
71
106
96
82
86
77
98
97
101
100
70
85
71
90
96
71
101
101
91
80
98
83
109
74
102
88
70
76
96
77
93
105
98
99
100
75
72
72
70
75
81
97
109
85
98
105
80
82
95
105
93
94
99
81
99
100
73
101
108
86
100
107
73
97
76
108
79
96
74
90
96
72
95
81
85
76
80
88
98
90
108
98
74
109
96
104
93
108
107
97
95
83
102
77
91
81
95
70
72
106
70
80
98
94
94
107
76
82
88
103
77
93
109
87
89
101
75
104
82
83
106
100
101
92
71
74
82
89
89
105
87
74
74
109
76
87
79
72
100
79
76
93
106
84
106
81
82
102
74
75
82
87
79
109
72
87
87
107
94
74
90
108
84
94
71
79
108
81
98
72
76
75
90
74
71
95
107
103
93
104
103
94
77
74
74
77
80
102
78
95
103
82
108
103
79
104
100
94
76
78
87
90
93
78
107
95
94
78
71
82
91
99
104
84
100
106
99
107
99
104
75
87
102
106
77
100
73
103
99
83
84
108
94
70
85
72
87
100
71
90
88
81
83
95
102
90
77
81
89
72
107
84
88
75
82
83
103
80
82
90
74
78
74
85
78
85
102
89
94
104
88
105
108
93
94
77
88
91
83
93
70
107
80
108
75
82
99
75
72
94
72
91
82
78
80
88
89
95
88
82
95
84
91
85
108
102
74
91
96
93
75
72
72
109
104
71
77
76
82
100
73
108
109
97
91
92
109
100
93
83
97
105
92
72
80
76
103
107
105
90
92
72
103
81
80
102
85
85
86
83
102
84
89
82
72
76
101
87
90
83
91
106
100
87
91
99
93
104
71
101
107
75
101
93
94
80
70
93
86
102
101
84
71
109
82
73
82
84
79
80
78
92
82
107
86
77
109
77
92
88
82
75
70
108
91
100
89
101
73
91
76
90
75
98
102
86
98
105
82
81
75
87
105
95
108
87
80
106
90
79
77
75
90
94
92
95
86
84
95
80
91
103
93
81
89
83
90
94
74
105
104
75
87
83
83
92
95
102
99
85
97
81
102
99
85
109
93
99
86
78
72
73
82
106
84
107
77
71
99
95
106
97
84
98
76
100
109
107
76
79
103
96
76
74
73
71
108
105
103
79
74
105
108
88
95
83
70
72
96
87
73
88
82
83
87
87
82
83
78
109
83
99
74
106
81
75
101
95
102
90
76
77
83
70
100
109
98
83
85
105
105
75
85
105
89
84
88
72
72
72
87
72
76
81
86
82
105
99
107
99
109
87
91
100
105
77
87
81
83
105
96
108
82
98
70
74
105
79
95
102
80
82
94
109
87
106
98
90
100
75
97
99
103
81
109
100
84
101
94
90
89
94
71
82
73
100
77
75
88
106
93
74
104
98
93
101
75
77
103
81
106
107
106
103
77
87
89
85
92
70
95
97
93
74
107
100
79
83
81
108
103
93
81
90
89
103
108
78
105
91
92
95
82
98
99
104
103
74
79
87
104
90
100
95
103
100
83
80
108
108
90
102
86
89
91
88
83
74
98
97
89
75
81
108
101
80
94
100
85
105
87
82
73
86
101
74
95
77
103
80
80
74
96
79
76
94
92
74
109
99
70
103
99
94
102
72
76
78
74
100
86
101
106
102
87
85
104
108
77
92
72
91
90
91
108
96
91
91
83
90
97
73
83
103
79
108
108
84
108
100
71
105
76
109
87
75
74
77
71
76
97
82
77
72
75
95
101
82
105
97
104
103
93
101
78
104
92
84
90
78
80
81
94
73
93
90
79
73
106
86
89
89
74
87
102
81
100
87
107
99
71
71
100
88
98
70
105
100
91
79
89
79
103
94
102
93
74
92
72
89
95
73
95
101
97
90
91
109
99
91
79
85
85
70
94
87
104
100
100
90
108
76
103
104
72
90
95
86
74
90
108
89
96
109
80
71
94
107
109
84
88
74
104
94
75
77
70
91
87
97
101
90
103
76
78
103
100
78
74
91
71
101
83
99
94
84
76
71
97
91
99
94
101
77
70
72
72
93
84
100
86
83
102
84
76
86
70
85
99
74
102
91
79
108
83
85
89
75
92
101
74
90
102
99
80
107
82
98
86
78
97
98
79
74
70
80
83
83
85
83
85
101
91
72
76
96
102
89
105
92
86
81
104
71
101
107
75
85
91
84
83
87
100
101
80
95
78
102
99
107
109
104
82
88
106
81
84
88
84
109
101
71
109
75
108
107
88
86
108
74
97
93
96
73
78
86
90
82
100
94
109
109
94
75
105
82
73
102
96
77
91
91
71
108
86
91
78
101
103
84
83
91
108
95
76
75
102
99
109
74
90
96
81
89
78
78
75
84
91
79
103
71
77
106
85
105
107
97
94
70
99
94
90
72
93
73
89
94
108
93
88
88
104
92
79
89
103
72
104
77
93
100
107
101
73
74
88
73
99
70
108
102
83
106
96
88
91
91
93
73
72
108
85
91
101
75
78
90
80
105
72
70
73
109
74
88
72
107
104
98
78
88
79
76
95
105
108
84
87
85
106
77
83
89
82
84
105
83
80
79
106
97
99
86
102
106
93
79
97
109
84
77
109
96
73
80
88
76
95
91
80
72
94
106
76
98
80
106
76
109
99
94
108
96
97
78
76
83
92
83
92
96
102
97
79
71
80
107
77
97
89
70
94
90
89
87
75
81
103
78
79
90
72
103
70
70
97
94
92
80
79
83
105
92
84
102
84
99
93
93
78
106
74
92
97
100
77
92
97
109
78
71
97
88
87
91
104
99
100
109
93
74
93
96
73
81
103
70
93
70
103
93
92
94
73
86
90
86
80
91
77
77
71
70
90
73
71
74
99
71
98
92
72
87
104
105
91
87
95
79
89
95
96
108
86
100
95
100
104
97
84
73
95
99
72
83
91
84
74
107
86
82
107
74
107
105
102
87
96
78
84
105
88
85
94
82
92
102
101
109
107
83
103
97
95
78
106
109
98
80
94
70
105
77
86
72
88
70
88
74
79
103
85
77
75
106
82
86
71
99
96
81
76
86
74
80
86
86
93
109
74
103
92
77
93
86
101
101
87
80
77
105
88
96
83
91
105
101
92
88
78
83
99
81
74
89
76
105
83
99
89
98
96
88
84
94
97
71
70
90
86
85
87
101
83
106
87
90
106
78
100
89
73
70
77
77
93
75
95
74
71
93
86
85
86
99
102
73
101
70
74
103
79
79
84
85
81
102
71
106
78
93
90
105
104
76
109
76
94
94
89
83
73
100
99
94
91
72
73
87
98
93
81
107
73
101
102
82
73
107
99
109
70
90
77
87
76
77
100
95
92
81
99
102
105
96
89
92
88
87
71
79
95
90
98
87
93
79
99
91
91
80
93
80
105
109
78
100
108
105
82
86
103
76
77
88
71
97
96
87
108
72
102
90
100
87
79
106
106
77
100
81
95
79
99
70
104
102
78
79
89
72
95
96
71
70
95
100
100
103
80
80
95
91
71
80
106
107
70
77
72
70
96
76
70
71
70
93
89
93
90
97
105
75
75
77
77
97
96
79
71
82
80
87
73
105
98
96
80
109
104
71
80
84
89
91
96
95
70
109
87
91
85
90
70
72
101
70
88
101
82
92
81
99
98
83
107
88
94
99
70
79
109
89
88
79
93
71
107
89
83
87
95
102
78
81
88
80
79
99
81
104
75
105
80
80
84
85
92
97
100
104
85
88
108
82
74
77
109
79
73
92
101
75
75
95
84
79
85
92
79
91
79
107
92
86
86
99
79
85
100
101
109
88
99
88
103
107
78
103
105
108
73
72
107
96
98
103
80
107
103
98
70
95
98
78
93
100
75
82
83
98
84
106
103
107
99
79
92
84
91
109
89
77
100
93
87
71
84
76
98
93
94
84
83
86
74
97
101
107
85
87
80
84
75
106
75
104
106
77
100
100
105
79
108
99
72
108
95
87
90
80
90
79
104
73
72
73
96
85
94
98
70
105
101
76
97
91
88
103
90
91
87
100
72
86
76
101
87
83
84
73
91
90
79
71
71
80
83
96
99
88
94
90
85
103
99
106
79
87
96
97
98
71
77
99
89
80
79
84
81
83
101
108
79
81
91
85
107
107
101
82
107
108
86
82
99
107
106
101
76
77
73
78
106
74
94
82
99
95
70
104
101
108
100
97
94
95
76
98
106
73
102
96
73
95
86
91
103
100
106
70
104
101
100
85
75
77
97
72
70
105
104
88
91
95
79
88
105
91
83
78
86
90
102
105
92
83
78
92
81
98
91
92
91
103
73
79
108
70
71
102
91
80
87
93
107
98
79
72
79
101
79
104
86
78
93
101
84
86
109
94
90
85
85
72
70
98
88
108
93
71
80
92
97
75
97
102
78
79
92
105
89
109
106
72
107
85
106
70
90
82
85
89
88
93
71
105
80
104
88
91
79
94
92
105
104
89
88
108
83
92
102
101
78
107
75
104
107
95
86
74
76
78
92
108
109
82
106
80
106
89
90
84
105
85
83
109
88
84
98
86
106
75
85
89
102
95
105
93
105
76
89
73
101
74
107
88
89
84
102
77
99
91
87
72
99
82
76
82
74
83
72
109
75
75
88
80
81
81
77
98
98
76
83
100
82
78
97
76
75
107
75
79
91
103
77
71
86
87
88
93
85
102
97
105
79
75
72
88
80
81
71
77
104
80
108
83
77
106
80
97
107
96
81
71
74
109
84
96
97
91
71
89
98
93
95
105
70
77
101
105
90
71
78
102
106
86
107
101
77
70
70
86
89
89
103
92
81
109
78
108
76
86
97
84
104
96
88
78
102
104
95
76
104
92
92
78
96
71
74
82
75
98
101
76
70
80
78
71
87
96
73
82
79
88
94
94
103
79
77
103
97
76
102
105
80
86
103
93
107
108
103
84
109
86
75
91
105
83
102
79
108
100
86
107
83
81
85
72
95
75
70
109
70
73
81
87
84
71
104
82
74
75
75
72
70
82
104
90
90
84
71
93
81
107
85
102
71
97
72
82
73
82
75
87
78
87
89
71
100
85
79
70
93
102
85
81
107
86
78
89
98
89
105
73
85
83
78
100
108
80
85
107
76
85
83
78
95
70
70
88
70
98
108
80
85
76
79
77
78
83
83
81
96
92
75
82
96
94
73
109
81
86
77
108
81
93
72
73
84
71
88
91
84
76
94
89
105
92
103
108
78
103
81
82
76
92
94
96
107
91
109
104
78
75
79
92
86
88
80
97
74
104
79
87
70
85
95
104
89
72
78
71
99
84
102
76
71
88
99
101
101
81
92
102
91
72
85
92
85
79
100
94
91
98
98
93
82
100
109
78
85
71
84
86
78
80
83
101
87
90
103
78
86
98
84
70
81
91
101
83
78
99
91
71
70
102
91
101
106
73
105
83
86
105
73
104
78
101
87
72
103
89
109
86
79
77
94
73
71
70
104
106
87
107
103
85
75
106
72
102
101
92
83
86
99
102
93
102
99
106
76
107
100
93
76
98
87
82
97
102
85
79
94
105
106
94
78
79
107
96
98
73
76
85
82
96
77
102
79
103
102
86
96
86
104
102
99
101
70
97
79
94
76
88
79
87
70
70
106
86
101
86
89
101
78
92
104
80
75
105
88
100
93
83
84
99
82
84
91
101
100
74
78
97
83
87
91
84
100
106
81
73
89
70
76
75
99
105
75
95
93
87
88
100
99
96
88
79
74
103
108
90
74
101
103
94
82
102
105
73
75
74
92
89
72
86
101
90
75
100
92
76
99
88
87
72
101
85
84
108
73
104
94
94
71
82
98
94
98
76
75
94
91
70
90
86
80
96
90
91
87
85
91
88
70
77
109
88
93
82
79
98
86
77
97
70
83
105
71
88
105
97
71
91
84
86
93
103
108
107
100
101
78
92
96
74
101
108
97
83
82
103
99
105
90
71
76
85
103
99
94
101
82
92
109
102
95
74
99
101
89
95
99
105
88
106
74
107
72
95
84
90
93
92
86
72
107
87
104
104
90
78
70
92
90
71
87
90
99
90
93
95
89
100
78
95
78
109
74
99
104
92
103
108
92
97
105
103
91
99
93
90
101
100
80
78
83
97
100
93
97
86
107
86
83
90
71
70
71
79
72
89
76
77
87
82
89
86
108
87
90
101
99
89
102
83
108
74
76
90
83
88
80
102
77
97
80
81
84
103
83
78
76
70
92
80
103
99
108
92
86
88
102
107
82
109
95
93
74
73
102
107
85
82
88
75
106
97
102
81
70
81
107
84
94
97
105
87
94
80
84
81
89
73
73
79
97
95
104
104
74
99
87
82
82
83
97
107
108
85
72
82
101
85
102
79
94
91
106
97
83
73
81
94
99
75
107
96
90
95
103
86
99
95
73
72
74
93
84
88
97
70
107
85
97
90
84
81
83
99
95
93
87
85
83
92
109
77
90
102
91
92
70
102
94
94
92
109
92
109
96
72
90
92
97
80
81
73
102
81
102
106
89
101
82
92
75
81
95
80
96
97
77
79
92
71
83
103
79
82
74
94
77
85
78
86
105
76
78
90
75
95
79
88
71
88
84
79
80
71
105
99
108
72
87
79
90
99
90
83
74
101
98
70
84
101
103
77
75
90
105
76
107
99
94
108
73
70
85
70
98
101
82
79
103
109
107
77
71
89
99
105
85
104
101
77
84
90
75
88
96
104
87
96
94
93
75
71
87
79
76
72
105
82
92
76
71
103
71
97
107
89
86
106
81
105
107
108
77
91
76
88
71
104
91
109
109
85
85
96
90
83
82
102
70
88
93
89
95
79
92
106
70
107
74
70
85
98
107
91
87
96
88
84
80
89
76
100
87
99
101
88
97
98
79
96
97
102
102
95
76
91
106
96
105
103
72
76
97
106
71
97
91
97
88
93
92
98
105
108
109
87
107
86
93
77
75
93
80
92
102
93
88
108
97
100
75
78
72
108
109
104
109
79
88
85
83
83
98
109
91
94
70
73
71
91
100
106
70
93
77
74
87
84
98
74
89
94
77
94
74
79
82
78
70
108
103
102
75
85
106
97
106
97
82
73
97
79
104
98
87
73
71
96
79
99
82
86
81
93
85
96
101
85
96
99
106
97
87
92
78
108
84
70
94
86
73
88
104
89
97
70
87
105
103
102
88
75
73
70
74
82
109
93
91
78
109
103
105
94
80
85
109
71
89
84
87
77
76
92
86
97
77
76
70
92
75
100
72
100
94
108
108
108
101
99
82
104
107
74
74
90
82
98
80
79
72
83
100
85
106
70
105
80
94
102
92
83
109
98
79
101
105
78
87
100
107
76
91
78
105
92
86
101
78
99
87
91
98
107
79
79
75
103
82
102
84
98
73
109
77
89
79
94
83
78
91
82
97
70
94
70
95
85
101
105
91
96
89
92
70
100
102
98
80
78
72
98
85
74
85
99
74
79
70
104
83
106
103
77
79
99
82
97
86
85
87
107
73
90
96
73
100
86
90
71
104
74
77
101
75
101
103
93
76
102
94
75
97
84
93
94
75
73
81
94
85
85
108
93
105
71
90
83
108
73
106
77
99
85
79
71
109
82
72
74
99
100
109
78
78
75
107
92
87
82
81
101
109
107
76
79
82
105
88
90
71
78
96
77
81
86
103
71
76
83
88
83
80
91
84
90
73
71
74
79
83
77
99
72
100
88
94
97
92
86
89
109
84
83
82
95
91
77
85
109
87
71
95
71
90
73
90
79
98
88
81
105
101
90
87
92
108
85
83
106
104
88
87
109
99
98
105
98
81
81
89
98
86
102
100
95
105
96
81
84
89
86
90
96
87
81
93
76
85
96
83
82
101
102
72
89
109
105
77
95
89
84
107
102
74
96
81
98
93
103
103
105
79
89
107
76
72
82
108
86
93
83
70
74
99
95
86
90
89
90
70
93
93
85
106
80
89
85
84
73
71
93
101
103
83
81
102
102
97
85
70
82
102
108
76
82
99
101
79
87
79
107
83
93
76
77
72
81
77
101
94
91
95
84
75
102
86
102
105
86
80
106
81
89
88
93
100
105
92
71
92
89
80
86
102
94
102
74
99
96
70
81
71
73
75
91
97
101
86
104
84
83
79
89
102
83
105
93
79
88
70
109
108
72
107
106
77
97
100
77
83
94
91
95
79
99
85
90
70
93
93
96
89
94
78
106
85
95
99
76
77
70
81
103
81
91
96
95
81
93
109
94
82
75
108
96
109
96
84
73
108
86
83
92
94
78
108
102
109
102
77
98
94
108
86
77
73
91
79
109
90
107
82
86
71
94
97
101
98
72
97
88
81
103
79
101
77
108
97
83
96
103
72
70
90
106
100
103
85
103
97
99
71
99
105
107
89
79
75
108
86
109
98
87
94
72
105
92
92
103
85
106
100
83
75
82
96
95
84
102
93
80
109
91
106
92
100
102
81
96
105
103
89
76
89
79
91
90
97
95
75
88
105
92
74
98
86
102
74
91
108
72
81
93
100
85
73
95
75
72
95
102
75
76
99
104
70
102
103
77
95
104
92
94
92
79
98
91
89
88
94
95
86
70
80
103
101
103
109
99
76
80
99
76
106
85
83
71
72
77
108
72
84
94
94
107
86
101
75
86
101
89
93
99
90
81
108
101
88
82
86
81
89
93
100
95
93
97
83
105
95
93
88
84
96
80
104
92
96
93
103
108
105
81
87
94
87
79
107
72
109
70
84
89
98
89
92
90
108
87
97
87
75
108
100
80
73
80
83
91
88
79
100
85
70
104
83
97
85
105
94
88
101
100
102
98
109
75
97
83
95
89
78
97
93
76
96
109
73
101
87
80
97
74
91
88
74
79
82
108
100
80
100
92
87
98
94
76
76
91
76
98
103
70
106
86
107
107
84
106
103
87
76
82
104
80
84
70
95
108
101
94
84
83
87
101
75
81
106
104
70
80
101
105
91
86
100
87
88
99
79
88
108
78
105
98
71
96
71
87
85
105
98
79
78
89
77
90
90
106
91
102
108
76
99
93
100
73
102
91
105
107
107
87
87
98
88
88
85
74
75
106
74
76
73
72
82
100
88
84
107
91
104
77
109
94
72
96
97
103
94
91
72
107
86
78
72
91
79
83
91
78
73
95
104
95
84
97
78
75
94
82
94
70
91
102
105
78
98
74
90
96
109
102
100
90
89
102
71
97
103
99
72
108
82
71
102
73
81
105
76
78
72
109
92
82
90
80
104
109
90
99
79
101
99
101
70
98
75
102
101
101
103
89
108
108
108
90
93
89
98
73
91
93
101
77
100
95
71
100
107
73
88
90
81
108
95
72
101
74
102
79
81
85
97
85
71
79
103
71
76
105
77
88
100
96
71
73
70
92
96
90
81
107
91
103
79
102
83
78
81
90
96
88
107
90
107
78
98
75
77
103
107
96
107
95
86
95
84
97
74
83
77
89
74
107
77
99
73
84
101
72
82
82
99
74
84
109
103
77
92
105
76
73
83
102
91
101
105
98
101
79
105
83
72
73
87
74
92
86
88
100
78
77
81
99
93
101
83
76
99
74
93
74
77
86
98
75
87
107
109
105
90
104
90
76
80
91
95
78
89
95
99
88
86
102
77
107
70
88
72
89
72
84
86
92
96
101
107
87
93
89
83
100
91
71
86
102
100
95
82
73
92
95
90
86
109
90
103
99
80
107
92
74
77
75
78
89
93
87
75
82
102
86
82
76
71
74
84
106
109
92
89
81
85
77
86
104
98
106
101
75
81
87
86
81
92
96
101
80
76
84
76
108
106
91
74
87
72
105
108
70
91
83
99
88
99
106
78
85
95
94
105
100
83
100
86
101
75
99
84
104
92
99
93
102
97
95
84
71
100
101
78
75
93
84
96
93
88
93
74
100
98
85
83
108
84
89
77
86
83
99
106
91
71
77
86
102
106
75
103
106
108
86
99
105
85
102
89
80
106
79
91
87
108
79
97
77
85
87
82
99
84
81
95
96
99
73
72
77
71
70
99
90
95
75
98
73
89
81
77
96
98
96
104
109
85
109
93
94
77
86
101
78
78
108
91
79
89
96
82
84
78
81
97
109
71
85
75
89
106
78
76
87
88
71
97
86
100
103
95
78
70
93
86
78
80
101
87
88
88
105
92
81
88
108
104
101
90
83
95
107
88
85
70
100
107
92
94
98
107
101
101
103
86
100
94
99
92
99
106
107
106
85
71
70
101
102
72
105
90
78
93
109
83
77
108
79
77
81
72
105
96
77
97
80
86
76
100
101
104
95
109
96
85
108
74
89
84
104
74
105
93
109
77
73
99
71
85
72
108
107
78
91
108
74
98
73
102
85
105
77
101
97
95
103
74
85
109
108
79
81
85
109
92
81
72
86
71
74
74
104
97
101
73
89
95
90
81
97
86
86
100
89
107
80
80
104
105
96
81
86
92
82
97
92
86
74
109
107
88
71
82
85
92
85
103
73
80
85
93
74
70
96
93
90
89
93
96
75
98
79
85
103
76
90
70
104
93
87
84
98
78
86
109
88
77
83
90
84
89
100
94
107
77
107
92
81
73
103
88
96
77
103
97
95
71
98
101
81
71
88
102
90
97
102
99
97
99
80
90
91
80
71
100
85
108
101
90
84
73
95
71
72
89
107
109
102
109
73
77
77
77
71
81
99
97
79
109
73
95
84
77
100
70
85
96
70
99
97
78
84
74
100
77
89
79
73
106
108
109
104
71
109
71
97
80
77
101
82
98
94
82
78
85
97
83
79
73
95
82
109
96
82
76
87
91
109
71
89
103
73
104
103
81
105
77
97
96
72
86
79
106
106
89
103
106
104
71
109
72
88
81
74
73
109
102
104
104
98
105
100
109
101
87
93
77
81
102
101
91
84
85
109
78
99
103
94
74
107
81
85
99
74
71
71
72
108
74
102
108
74
85
98
99
80
88
83
99
102
108
109
88
82
71
101
93
75
91
92
71
73
75
74
100
83
85
85
77
97
94
73
80
108
82
74
105
106
107
104
97
94
109
90
95
88
71
95
87
105
92
104
104
89
91
106
91
101
99
99
88
91
83
99
99
103
73
93
87
99
74
85
105
83
82
92
73
95
100
82
77
100
107
75
70
77
82
86
70
86
97
106
106
74
97
73
109
101
83
74
94
100
75
105
75
75
91
98
93
87
93
102
77
102
72
101
96
76
95
77
87
104
87
105
74
102
96
78
79
77
93
98
101
99
87
109
101
104
71
109
99
73
107
108
98
70
99
85
70
70
84
88
70
97
92
89
89
87
87
95
103
103
98
92
100
74
94
89
81
81
80
108
92
107
78
76
97
108
108
92
89
75
79
78
89
83
82
106
94
77
72
95
88
99
105
73
76
95
88
84
79
93
92
96
79
103
70
93
100
72
74
73
71
83
74
72
82
101
87
75
105
72
105
100
87
81
97
80
108
84
85
94
93
70
76
88
100
100
74
88
106
98
94
101
82
86
107
101
96
79
108
101
82
72
99
87
94
89
99
99
100
96
108
89
77
99
88
77
76
97
84
108
92
106
104
103
98
93
75
86
92
97
72
95
82
85
94
103
84
75
79
103
93
82
102
82
94
92
71
95
70
104
90
82
72
73
88
72
86
70
105
99
101
99
85
98
96
71
89
76
81
104
93
78
102
84
76
108
89
105
99
77
82
104
77
82
80
101
86
95
70
106
95
83
91
109
105
109
109
71
86
104
86
78
76
88
103
85
99
85
76
74
106
95
97
73
77
75
108
71
97
102
82
90
75
70
70
103
102
105
103
107
75
88
90
102
86
92
72
109
102
101
106
71
101
71
105
83
105
77
82
72
99
106
91
100
70
86
71
97
90
77
80
77
105
95
78
97
89
83
106
92
100
109
96
105
84
74
85
102
91
106
101
86
90
85
96
82
72
89
77
91
101
99
104
83
72
107
80
109
94
101
100
74
100
85
72
78
71
99
82
74
73
103
98
83
71
95
73
74
89
71
97
93
73
80
85
87
72
108
82
100
77
105
87
71
95
108
97
71
101
96
90
79
84
79
82
77
89
95
95
78
72
97
81
80
84
70
97
104
72
107
84
84
77
95
82
107
77
91
83
84
96
81
100
85
108
103
78
86
106
94
81
85
86
78
79
90
96
109
75
77
81
88
84
71
72
97
77
95
102
81
79
70
94
87
72
109
81
90
102
77
72
92
71
86
108
103
91
93
107
76
76
80
75
98
108
92
100
108
104
97
97
103
76
91
104
106
95
77
98
78
96
97
77
88
73
91
104
76
83
79
86
84
75
104
94
74
75
99
82
75
108
98
80
108
74
93
78
73
72
102
105
99
86
108
70
74
80
91
74
92
97
74
96
85
80
77
74
87
90
91
106
99
80
107
89
89
98
91
95
85
75
81
76
74
95
109
78
107
75
78
92
96
109
93
107
78
76
95
95
82
80
102
100
87
108
82
93
102
99
84
109
93
89
100
100
83
108
108
84
99
99
100
108
103
93
87
109
71
101
86
84
83
85
91
87
101
89
105
84
90
93
90
78
106
97
73
72
109
84
105
95
97
79
77
92
74
91
82
95
97
109
82
82
89
89
90
85
93
78
87
85
77
81
84
83
91
99
86
98
73
87
100
105
94
79
73
90
89
94
109
105
100
108
83
89
100
109
108
84
104
107
107
82
81
93
106
100
97
96
77
88
78
109
77
80
97
107
73
70
82
71
96
91
87
81
73
105
101
80
95
109
94
105
87
81
99
84
100
88
108
95
93
108
93
79
93
84
91
108
91
98
80
77
91
109
83
84
109
97
84
107
76
96
70
78
90
75
70
99
82
89
91
80
78
76
78
108
82
79
100
89
104
92
105
72
70
86
96
85
93
99
88
92
75
108
73
77
84
80
88
100
100
109
78
84
72
88
88
100
101
96
107
90
73
102
102
104
89
87
84
85
99
109
106
85
77
99
70
91
101
103
105
102
82
77
95
97
99
98
76
88
103
94
72
80
108
78
78
86
84
88
74
91
101
72
105
94
80
107
86
82
109
90
82
105
100
89
99
98
95
88
81
103
94
90
77
90
91
93
90
81
95
81
96
87
85
76
94
101
86
109
97
81
92
95
75
94
74
89
77
92
76
92
71
106
92
100
71
72
84
90
73
90
83
98
71
74
89
73
73
92
101
105
86
73
106
79
91
84
93
100
99
81
82
76
72
103
103
76
73
83
73
79
92
87
78
74
70
75
91
86
73
107
71
78
77
72
95
106
98
76
75
76
109
72
73
73
98
88
73
73
72
90
97
98
99
90
73
106
102
106
74
108
103
96
98
102
95
72
99
96
90
108
70
103
92
89
89
90
109
76
81
101
95
85
92
108
85
83
85
106
102
103
77
100
106
93
88
71
108
105
95
105
81
78
76
94
72
93
75
89
98
84
78
86
76
101
97
101
82
104
72
90
71
91
102
75
106
105
88
98
99
106
73
100
103
106
87
97
96
107
85
100
72
103
74
109
103
96
106
93
92
75
108
74
104
102
84
108
97
93
106
79
77
91
106
90
101
94
77
95
109
76
105
76
97
109
84
82
89
73
70
92
104
84
96
81
106
102
79
94
109
96
86
86
81
76
99
107
74
84
104
74
78
86
93
73
106
103
108
100
106
109
85
81
105
81
75
73
101
101
79
72
94
82
92
94
88
70
106
95
96
107
71
72
76
91
91
99
101
99
74
77
89
102
95
109
92
100
71
80
72
82
100
99
101
108
76
72
106
95
105
78
92
84
106
106
86
74
97
82
106
108
94
91
87
91
101
104
84
92
75
71
92
101
86
79
98
76
86
93
78
106
103
79
96
94
72
80
109
92
73
77
81
95
80
103
92
76
109
90
87
106
95
85
72
95
102
108
84
108
90
91
93
108
92
75
100
105
75
73
97
104
106
101
104
94
89
73
102
74
72
99
93
77
99
76
93
103
82
90
76
84
88
74
94
95
71
82
96
70
90
103
89
102
100
74
74
80
95
96
96
76
70
82
88
77
95
74
106
102
107
72
81
99
81
100
82
90
74
84
106
83
94
96
85
71
102
92
93
93
99
70
104
107
80
105
93
90
83
89
88
106
106
87
100
89
83
103
72
86
108
89
77
74
77
93
103
98
82
75
74
94
86
89
71
85
76
102
102
93
87
103
86
77
109
95
84
94
95
93
73
74
77
80
71
91
96
78
100
95
71
102
96
74
70
82
92
108
84
74
83
85
107
108
77
95
102
88
90
107
86
84
76
94
109
75
72
109
79
75
103
86
70
70
71
73
93
97
71
104
94
76
92
99
96
106
109
94
75
98
93
103
103
84
82
90
84
80
74
104
74
107
78
96
101
83
89
108
89
102
106
71
76
94
80
109
84
71
77
84
86
84
95
82
73
95
107
71
83
96
74
76
82
80
97
84
101
85
108
82
92
72
107
75
101
70
71
85
73
85
102
104
86
104
85
85
86
91
70
108
88
74
107
106
93
88
105
74
86
100
72
83
92
73
74
83
73
93
90
75
109
98
87
99
99
76
73
94
101
74
76
90
92
88
98
89
93
84
86
99
96
104
102
104
75
103
72
72
87
75
105
77
90
79
89
84
77
73
99
80
101
90
84
95
103
80
98
81
104
76
79
78
108
104
102
88
72
91
101
105
89
104
107
101
94
107
84
107
83
102
98
88
80
100
95
93
106
84
73
75
72
87
85
100
104
85
87
99
107
101
88
78
86
84
97
74
107
88
95
73
71
93
79
72
93
71
84
92
83
106
79
70
100
79
87
107
78
71
97
73
92
84
81
87
70
102
82
101
96
108
90
92
104
92
106
87
84
109
84
106
100
74
85
98
91
90
70
77
84
94
94
99
99
90
90
93
89
87
71
93
100
72
78
95
87
92
74
94
85
108
87
105
84
78
91
103
103
81
73
90
108
105
99
80
80
101
80
79
80
71
79
90
105
108
75
71
98
109
87
100
104
101
84
89
82
100
96
78
103
108
105
104
77
106
99
89
99
102
86
102
73
86
91
101
86
72
80
102
90
87
90
81
94
88
75
104
96
78
85
78
99
90
70
97
103
79
84
76
108
93
74
89
85
108
75
85
91
84
78
107
71
82
91
101
85
101
78
104
77
82
97
80
83
101
71
84
81
89
70
107
108
98
76
104
76
104
102
98
80
95
92
102
106
85
97
105
94
84
82
80
97
73
109
83
87
91
76
106
109
88
98
102
81
92
85
91
71
84
85
108
93
90
75
88
81
89
101
108
105
92
106
97
84
82
73
103
95
77
79
106
98
107
96
100
100
84
93
75
92
86
87
100
90
93
75
72
70
94
87
78
79
94
84
98
78
79
76
100
84
91
77
100
104
76
95
85
94
91
99
71
93
95
101
97
80
88
107
78
79
100
102
104
70
98
80
99
103
78
86
99
100
85
97
104
95
81
96
97
77
70
88
95
104
86
70
75
93
107
76
99
86
83
74
97
96
88
71
108
95
96
72
75
80
74
105
103
87
83
98
89
91
80
83
100
103
85
91
75
90
93
101
86
81
90
76
97
92
88
81
70
78
93
90
77
96
84
93
88
73
74
70
100
95
88
85
100
97
74
107
72
96
103
71
95
74
107
108
73
105
89
101
88
108
93
91
79
101
97
78
108
83
70
99
90
72
101
101
98
102
70
79
91
85
81
73
103
80
84
81
72
81
108
91
90
90
95
76
83
85
82
100
81
70
102
82
91
96
72
76
107
109
97
71
98
75
91
76
93
107
86
92
78
99
106
93
109
78
109
93
89
106
79
102
73
91
83
75
80
102
97
106
97
88
83
98
95
72
101
95
97
107
104
100
83
103
88
89
96
97
109
77
95
99
87
93
76
88
94
101
104
106
96
94
83
86
100
105
89
78
86
75
83
72
84
90
88
85
81
95
108
92
88
108
87
71
100
96
88
103
101
96
108
108
109
97
74
103
99
107
97
92
72
72
92
106
88
109
92
77
108
88
103
78
102
107
96
104
108
104
103
94
72
70
91
84
95
82
109
99
81
105
86
98
73
77
75
73
93
70
96
103
72
107
83
78
102
74
107
77
72
92
81
103
97
108
93
82
95
74
100
99
70
91
80
79
98
83
97
101
91
101
107
75
70
89
103
86
106
88
79
86
104
93
92
81
86
109
82
78
101
72
87
93
98
104
96
85
82
73
76
78
98
81
77
73
70
106
84
109
96
86
84
91
107
75
74
91
72
103
83
104
73
77
95
82
85
96
109
91
107
96
102
77
98
83
70
73
88
85
81
98
81
83
82
100
91
109
90
103
71
98
79
81
83
96
91
98
78
84
103
97
75
71
71
72
98
98
79
76
107
107
70
79
93
88
82
81
94
83
93
100
83
103
103
79
90
106
91
94
86
108
70
71
108
71
109
72
83
87
103
80
97
83
76
83
100
77
107
82
101
79
74
74
84
78
89
75
80
107
80
108
86
103
99
78
92
87
74
102
70
97
70
102
72
78
97
70
77
97
86
71
104
70
81
73
105
94
95
94
83
82
105
86
107
78
77
100
75
72
78
104
72
81
85
71
73
100
96
104
81
108
90
96
71
75
98
81
92
80
97
94
100
96
70
74
80
72
108
74
99
98
87
80
92
71
91
97
76
108
86
97
89
79
87
86
81
100
102
82
99
91
85
93
106
84
88
98
84
86
97
96
90
92
79
109
81
106
80
86
97
70
77
82
98
82
77
79
72
105
92
108
79
96
101
82
103
79
102
93
86
88
83
87
90
87
94
86
78
90
77
109
79
75
76
97
95
76
101
101
74
99
101
88
79
102
80
84
97
72
88
107
71
85
74
101
97
106
74
101
92
89
105
109
95
91
107
87
79
94
94
78
88
82
71
100
85
78
79
93
98
96
87
83
95
93
79
76
72
102
77
105
83
76
100
88
89
101
75
109
105
88
72
92
82
85
84
81
79
96
81
92
104
79
89
79
70
106
97
82
94
75
70
82
83
94
103
93
109
90
91
81
94
80
108
85
79
109
76
88
70
83
78
81
75
100
81
70
107
81
72
105
85
96
78
80
107
92
96
100
83
74
91
108
94
97
73
107
81
105
101
79
74
72
87
84
101
80
108
88
80
101
85
88
107
93
84
99
108
97
74
77
90
84
84
87
105
81
103
109
86
82
97
80
107
86
74
77
92
82
92
93
107
107
71
95
89
75
104
99
103
91
106
104
84
80
85
73
95
89
78
99
87
95
72
98
96
86
106
76
106
107
88
70
101
70
78
70
87
82
90
80
74
99
90
77
103
95
94
73
95
104
71
100
76
73
96
100
99
95
84
97
109
98
88
89
86
76
107
76
77
97
83
99
93
96
73
100
108
81
104
81
82
79
73
90
84
104
75
104
82
90
98
84
85
80
93
79
102
77
108
107
107
97
82
98
82
90
79
94
91
93
98
104
80
85
93
100
105
99
96
101
94
94
107
94
84
109
86
89
92
107
92
74
96
97
103
102
71
75
101
105
91
92
76
102
97
83
90
83
81
106
80
107
103
100
95
93
89
72
100
93
73
83
104
106
77
90
99
104
70
80
98
78
94
93
78
91
85
104
80
101
77
95
98
90
77
100
87
82
107
105
101
92
93
71
98
89
74
108
93
78
101
76
87
94
98
105
89
103
75
85
103
91
93
79
78
90
103
77
74
70
107
89
91
103
72
87
97
88
103
94
93
90
85
77
90
87
88
71
76
74
109
98
104
109
105
93
76
91
94
88
96
103
97
72
86
77
98
99
109
79
84
89
100
90
101
75
77
91
96
96
96
76
97
94
90
75
96
71
85
93
106
76
98
71
93
93
76
77
91
74
95
103
104
92
73
104
87
103
104
88
73
76
84
93
72
74
85
70
92
77
88
104
83
106
87
84
94
81
71
73
90
84
78
70
84
103
92
75
89
89
89
72
77
98
72
77
98
101
98
92
75
88
94
101
89
89
103
104
78
92
94
80
96
74
82
78
104
100
94
75
84
96
74
106
106
99
108
85
86
72
88
79
102
104
109
82
99
98
99
74
75
93
90
82
109
100
108
85
84
89
78
79
104
109
106
70
89
86
105
75
70
74
87
93
109
108
79
104
91
101
90
82
94
108
106
86
89
89
75
85
104
86
100
89
101
87
74
92
106
92
86
105
72
76
72
72
87
77
108
72
79
81
76
72
103
74
78
78
99
74
79
100
75
108
104
96
90
87
73
91
85
92
107
93
85
78
98
71
78
106
74
96
80
103
89
84
101
71
102
81
109
70
97
100
79
107
75
76
73
85
95
109
89
95
105
89
108
79
109
73
96
100
91
74
70
78
90
86
82
82
83
104
101
86
80
92
106
90
100
93
88
104
100
81
96
101
95
75
79
88
106
88
86
90
79
76
96
103
70
102
92
92
108
81
76
89
76
84
77
105
108
76
96
80
97
80
96
101
109
93
109
104
88
99
96
109
84
96
96
81
94
84
84
76
90
93
98
96
86
108
96
106
105
79
73
94
93
104
90
104
76
94
85
96
103
98
101
77
100
109
76
109
81
88
90
107
92
100
86
107
84
108
74
83
94
95
74
90
81
106
101
93
75
85
80
71
95
85
103
105
86
91
85
90
79
106
77
73
90
95
90
81
105
76
84
76
96
85
85
107
83
94
107
109
82
84
94
94
97
84
76
81
107
106
91
97
72
83
103
101
84
92
84
107
90
108
71
94
97
71
80
98
77
101
74
87
89
74
86
100
108
95
101
87
82
106
93
74
109
81
94
87
107
76
101
80
97
92
105
104
80
78
100
78
87
85
92
76
97
79
82
82
89
71
74
96
91
99
109
100
93
86
107
89
94
96
77
89
85
76
98
83
93
83
105
80
79
88
103
107
89
99
88
104
102
90
83
95
78
101
97
88
72
96
70
80
93
79
100
85
86
100
92
87
105
93
94
88
103
76
99
101
106
95
89
77
93
105
71
82
100
80
90
85
87
89
79
95
73
72
73
77
77
109
102
99
91
99
77
109
87
75
106
106
98
105
85
106
94
108
104
97
84
84
72
100
105
79
78
108
88
93
94
72
105
101
79
88
91
79
100
80
101
76
74
97
84
82
92
86
104
108
92
77
103
81
99
100
86
84
106
87
109
101
73
87
90
78
104
101
89
88
76
104
107
78
101
83
85
82
70
98
91
79
76
86
83
88
98
102
86
71
100
97
109
72
91
82
97
78
105
83
94
70
101
93
88
75
73
79
79
98
82
101
87
87
96
91
91
95
70
82
106
104
84
97
82
101
108
88
101
79
81
98
81
89
87
73
77
90
95
70
73
80
89
104
76
107
71
85
76
71
95
95
82
79
74
97
75
70
83
82
94
103
98
81
83
81
73
82
81
107
70
79
91
94
91
91
83
98
75
99
72
73
77
102
76
76
101
102
105
106
82
95
93
96
82
72
107
78
93
96
92
102
104
99
94
82
88
77
92
70
106
70
94
92
96
70
98
95
71
82
99
90
103
104
89
97
98
104
97
88
81
100
103
75
83
82
89
86
103
78
109
102
109
77
94
95
104
96
83
104
102
85
105
84
91
77
74
74
106
89
85
95
78
94
88
74
80
99
76
88
74
88
80
90
92
105
80
92
92
75
103
71
107
95
75
73
86
85
73
91
90
98
104
99
76
77
97
83
95
70
79
74
95
88
76
74
70
74
109
98
85
96
79
76
94
95
82
73
79
96
76
76
98
84
89
108
90
106
82
102
80
84
83
83
79
73
98
94
85
95
77
97
83
86
106
71
87
109
93
101
88
95
94
77
105
70
89
107
98
76
106
100
75
109
104
99
74
89
73
86
79
104
94
80
102
95
73
89
85
90
76
107
71
74
108
78
96
73
86
94
74
92
97
107
71
73
76
74
96
80
105
106
85
94
74
81
94
80
90
80
73
102
88
100
85
80
88
87
71
77
74
71
83
89
103
77
101
70
89
88
88
103
106
90
87
97
72
75
82
107
71
86
100
72
88
73
82
82
81
80
86
89
101
84
93
92
101
72
109
79
94
85
100
78
93
94
109
105
105
70
100
72
96
81
91
73
100
89
86
95
71
74
93
101
93
71
71
108
82
70
87
82
107
89
98
100
89
79
94
109
107
75
106
86
99
107
105
72
109
83
104
80
75
83
107
75
108
95
83
75
78
77
107
72
81
84
99
106
102
83
108
85
80
88
108
78
106
98
93
70
74
105
98
85
76
76
73
80
89
99
87
78
98
103
72
72
71
102
78
79
77
108
93
74
104
70
100
96
93
104
70
98
107
98
74
77
90
86
95
71
85
93
92
79
108
99
95
74
86
80
77
76
77
88
98
76
74
109
89
83
74
84
85
77
81
86
97
80
86
79
77
70
87
108
82
86
103
104
105
80
84
96
102
88
70
97
75
74
86
86
74
79
83
86
98
103
82
77
95
104
95
105
99
77
87
80
89
98
72
96
99
95
91
96
90
92
105
93
79
84
84
95
72
85
71
94
101
95
73
86
91
98
93
75
80
93
85
73
80
100
89
74
88
74
83
102
81
104
77
102
88
92
109
90
99
77
87
100
78
101
75
100
102
81
105
84
94
70
98
103
105
100
89
102
95
71
98
108
75
99
82
107
108
72
88
77
99
78
90
80
84
83
82
100
97
91
90
102
99
71
101
82
82
97
81
92
71
102
98
104
80
101
89
76
76
96
77
98
71
89
88
98
88
79
85
87
90
72
104
88
88
88
87
98
92
91
103
108
97
96
99
76
95
96
105
72
96
77
100
104
81
109
81
106
98
73
92
109
98
73
99
82
77
83
87
79
71
83
102
71
77
77
75
95
82
105
82
89
79
95
102
70
79
91
94
80
90
82
72
78
72
78
76
100
89
77
77
98
74
97
83
91
107
76
100
73
79
99
100
86
99
109
91
94
90
83
78
84
80
97
96
75
78
78
74
70
85
81
73
81
71
108
96
73
90
102
85
73
78
92
96
96
106
71
81
79
74
84
105
79
83
103
77
74
74
89
70
104
106
109
84
86
100
93
92
98
100
82
79
89
89
108
85
101
109
86
74
97
78
78
72
71
101
100
85
93
77
73
79
106
94
73
85
95
82
76
95
76
79
89
97
96
95
92
100
70
84
74
77
108
72
74
98
85
76
71
106
74
79
99
77
84
81
70
92
86
73
80
106
72
76
75
91
86
95
100
75
107
71
83
107
72
94
88
95
98
89
81
100
91
88
98
72
71
85
92
106
73
89
97
92
95
107
87
77
84
74
99
84
92
77
71
106
85
105
71
88
101
83
105
105
102
103
100
97
89
97
98
78
90
105
88
101
88
92
93
72
104
80
73
79
106
104
81
109
92
73
80
84
101
92
96
107
77
102
81
71
108
84
81
88
104
74
85
94
82
78
102
107
107
89
80
106
99
102
71
81
99
70
75
99
84
90
85
81
103
99
90
90
86
79
72
88
90
108
87
94
87
74
82
103
77
100
94
87
97
88
106
72
83
103
79
102
73
71
105
76
92
103
103
75
89
98
104
95
82
87
71
101
86
80
96
74
79
91
107
86
82
94
97
97
85
86
100
76
100
97
76
75
100
73
103
97
75
92
81
109
103
91
76
99
71
96
81
102
103
100
72
93
80
71
92
108
95
89
91
109
84
72
85
70
87
91
99
108
102
95
98
88
105
88
79
97
98
98
109
75
95
96
100
102
82
101
77
106
99
73
100
73
75
86
101
93
93
99
90
109
97
97
99
82
80
93
103
86
103
109
91
71
77
79
73
81
95
102
106
90
79
77
102
73
72
89
91
81
86
107
93
75
75
107
109
74
84
99
109
75
78
99
83
92
91
96
108
92
105
107
107
76
101
87
98
84
76
99
104
89
90
89
75
102
86
101
88
96
78
74
73
95
95
106
94
73
88
109
87
105
87
108
89
89
84
93
71
99
109
98
91
94
81
85
109
94
105
95
91
93
92
82
74
90
74
83
84
103
75
76
106
79
81
88
107
87
75
89
78
85
108
87
93
102
83
73
75
100
108
97
95
96
103
107
81
76
71
70
92
77
70
78
100
95
71
89
107
105
108
105
79
74
89
89
77
108
97
108
92
71
95
106
83
90
87
92
77
94
95
90
87
75
88
75
78
87
105
101
102
108
102
77
73
90
77
82
109
93
105
109
97
104
98
107
80
89
85
78
79
103
80
105
84
98
81
91
72
74
71
93
94
82
73
87
76
78
94
80
90
107
93
77
97
70
77
92
78
103
103
89
70
71
75
73
100
97
89
101
89
109
82
73
99
90
85
102
105
85
101
76
102
109
91
108
77
73
89
77
108
108
103
101
75
95
97
91
102
72
104
82
97
82
96
97
85
93
106
81
104
95
99
102
73
83
93
82
84
81
84
102
82
102
99
90
94
94
80
71
75
79
94
74
106
80
90
108
74
89
104
81
80
93
102
70
74
93
105
78
71
95
103
94
90
79
93
103
70
92
74
84
99
103
91
109
89
103
96
84
85
97
79
86
74
102
80
83
90
108
73
97
101
98
75
86
89
86
84
109
91
98
94
76
109
79
96
99
73
104
75
95
76
98
104
71
70
98
72
87
81
72
84
108
88
82
78
102
90
100
88
77
103
87
91
77
106
103
75
108
79
74
73
86
96
78
81
102
99
90
86
104
102
95
90
92
101
72
74
102
99
80
73
100
95
83
91
104
81
96
109
87
86
85
100
97
80
84
83
105
89
76
73
95
105
99
91
100
70
75
85
86
92
74
70
101
94
79
85
101
83
73
103
93
92
74
107
79
92
84
71
73
73
83
91
92
91
99
71
83
107
99
89
101
94
75
73
95
90
105
97
100
79
106
87
94
97
88
77
90
94
87
99
78
99
92
83
102
108
80
94
80
99
105
101
77
89
105
74
73
91
100
95
100
70
100
79
82
78
87
76
96
92
92
97
80
86
89
73
95
99
89
96
76
103
100
89
84
100
87
87
84
82
77
87
103
104
94
85
73
99
104
71
82
102
75
88
103
107
89
85
93
97
70
85
71
87
100
100
83
71
74
81
88
79
70
73
75
92
72
83
106
71
89
86
96
77
101
71
106
81
93
72
105
101
87
101
89
106
105
88
90
84
84
104
85
89
102
93
73
82
83
96
86
91
109
73
97
96
89
104
74
73
75
80
75
72
85
72
82
104
92
84
72
96
92
84
75
80
109
84
72
108
94
92
77
86
97
72
71
81
103
82
79
75
85
102
90
90
79
95
81
106
84
72
78
102
106
86
105
70
92
76
90
103
73
95
95
89
87
75
104
109
87
101
73
102
99
90
96
98
77
80
80
104
90
100
93
76
95
92
80
80
82
86
101
78
93
88
76
92
70
106
85
78
98
81
72
106
91
109
91
104
104
93
85
81
93
81
99
106
90
104
80
81
104
83
75
87
72
81
75
102
102
93
86
100
79
70
107
97
71
93
108
78
95
92
105
86
85
109
80
81
91
80
97
87
76
97
98
106
84
82
102
103
80
100
91
87
103
92
75
96
71
84
83
89
106
87
99
102
106
89
70
97
83
70
83
98
88
106
98
88
73
97
99
80
99
88
91
93
97
91
88
82
81
104
96
76
98
84
109
74
77
77
76
97
73
88
77
99
83
84
93
81
94
87
107
73
88
95
104
97
85
91
82
84
95
91
91
108
78
109
101
106
77
106
105
98
85
80
73
98
78
105
82
92
99
108
101
81
109
75
72
89
75
108
81
89
89
92
99
92
78
73
100
109
106
70
70
107
88
77
77
78
104
96
72
98
88
80
91
97
108
98
84
94
100
103
93
103
109
83
97
82
91
72
90
84
101
75
91
93
81
71
106
72
89
89
72
82
102
84
83
105
109
94
100
71
95
74
109
102
85
87
77
94
75
82
87
102
93
79
87
103
72
70
87
103
90
108
74
93
84
102
87
104
86
93
71
84
84
71
90
103
72
106
95
105
97
79
99
91
74
84
100
98
93
98
94
92
74
89
93
90
98
96
109
78
81
89
87
71
108
108
76
106
87
83
86
83
106
87
109
93
77
81
88
70
89
99
109
71
81
96
75
90
89
72
101
76
109
89
90
70
94
83
91
86
97
90
84
107
80
74
86
82
77
70
108
74
107
97
77
79
103
81
74
92
80
88
81
82
91
85
81
89
90
106
86
84
86
79
103
82
74
72
86
98
90
99
96
79
108
100
94
76
101
92
75
90
95
103
87
79
98
76
84
97
89
107
103
91
86
75
72
104
104
97
109
102
76
71
108
100
82
76
72
79
106
81
78
81
103
84
73
100
90
72
106
77
74
77
84
76
90
108
103
75
107
93
99
102
100
76
96
74
87
74
99
96
95
88
91
75
103
97
77
96
92
104
85
87
93
96
70
103
73
107
108
94
98
101
95
81
89
89
99
104
83
76
78
70
90
73
90
72
79
109
108
108
86
85
91
100
74
84
109
83
91
88
86
79
78
87
107
103
100
79
102
87
100
75
106
90
109
77
82
95
103
72
109
88
82
77
109
78
74
97
80
97
89
84
70
103
77
93
101
98
76
100
81
103
92
88
79
107
72
82
84
105
72
106
90
91
80
97
91
85
76
79
81
80
106
93
77
77
73
77
86
79
89
89
76
103
99
97
85
106
81
82
104
94
89
75
105
77
103
81
109
73
89
78
102
88
94
109
81
82
89
89
93
73
99
70
103
71
95
104
76
79
82
83
78
77
75
91
91
103
87
109
90
80
104
94
80
75
78
74
82
85
94
79
100
94
75
84
73
105
98
84
75
89
75
103
78
78
93
82
104
97
72
70
108
77
105
103
79
87
73
86
98
95
103
97
97
94
80
73
75
82
92
92
76
73
98
101
87
91
95
105
96
82
91
106
97
102
100
81
83
92
71
80
87
79
100
78
85
106
82
102
109
85
75
106
109
94
97
84
99
105
81
78
90
83
95
83
90
92
98
109
107
83
97
95
98
102
78
86
104
82
98
92
95
88
89
85
87
97
79
70
88
91
100
74
96
83
76
79
87
94
82
81
81
91
102
93
91
100
84
89
74
109
87
106
97
75
85
101
73
73
85
98
86
70
87
94
72
75
91
80
87
84
76
86
75
78
78
97
74
88
86
103
107
92
97
87
98
87
104
82
93
95
82
104
71
101
90
80
107
99
75
77
92
88
81
101
98
89
106
75
79
98
100
88
82
86
73
93
108
84
73
108
89
74
102
88
106
70
94
90
89
98
92
101
76
88
96
93
77
94
96
107
73
84
79
84
104
108
85
91
109
89
96
107
87
99
97
82
86
73
82
98
97
89
94
74
96
108
73
85
70
109
82
97
89
75
94
99
93
85
88
81
102
86
77
71
109
98
84
102
108
79
102
106
85
71
90
99
96
109
93
71
99
70
80
85
95
74
74
109
73
106
95
95
71
109
73
89
83
102
102
84
76
72
107
73
107
93
95
88
107
82
83
82
78
72
73
80
75
79
81
98
84
91
84
93
103
83
107
87
91
104
80
77
70
75
79
79
76
82
86
81
75
109
83
77
101
99
85
72
77
90
85
107
101
95
70
91
79
83
83
98
99
95
97
79
81
73
93
108
104
71
94
102
78
107
93
90
88
104
76
94
76
92
86
78
85
103
102
105
96
83
74
107
85
84
73
91
79
97
82
104
79
99
71
103
93
94
98
72
105
79
87
83
82
93
75
101
85
106
98
79
80
83
103
104
103
70
104
98
70
108
96
75
104
95
73
101
88
78
97
103
94
95
101
109
109
100
76
78
106
73
109
77
79
100
82
91
81
94
71
82
103
106
86
77
108
99
77
78
95
106
99
95
81
105
94
78
86
98
97
83
79
107
108
83
95
70
92
82
85
99
109
101
74
82
109
70
108
94
98
91
81
83
95
73
88
84
99
92
109
78
90
90
107
105
97
98
87
88
76
87
90
87
106
97
71
92
99
86
102
81
105
84
104
105
77
99
92
73
83
105
89
105
88
85
93
107
107
96
102
107
90
89
87
87
94
96
93
105
106
77
82
91
80
82
106
83
85
102
84
79
86
108
91
82
99
83
94
88
98
87
101
70
71
88
101
109
98
73
109
89
106
75
74
101
89
75
96
89
104
98
106
79
85
84
100
98
89
84
94
104
103
77
76
90
82
107
92
73
94
84
87
107
82
81
108
102
76
73
74
77
93
80
108
97
78
99
98
105
84
96
101
84
89
84
74
78
83
84
108
74
80
88
107
96
82
85
97
79
87
107
79
76
92
86
99
100
100
72
109
70
75
79
99
100
104
106
89
83
98
74
84
81
82
95
89
87
90
81
89
72
108
88
97
89
94
102
103
88
108
99
71
74
103
81
103
103
93
89
79
97
88
109
94
78
91
88
72
105
107
107
92
80
82
106
94
89
106
70
88
71
80
92
94
92
86
102
82
102
78
72
77
87
84
77
96
72
100
107
106
102
99
77
98
88
74
80
103
79
104
88
102
102
71
107
108
101
99
86
92
73
78
79
75
78
103
91
75
103
83
73
93
109
101
94
82
87
107
106
108
105
73
91
80
88
82
104
87
108
75
89
93
79
82
78
97
101
79
101
86
108
83
96
82
103
102
109
77
70
101
104
108
71
84
70
79
75
71
76
96
74
88
103
109
88
76
77
71
77
71
76
99
87
97
97
105
107
96
84
76
92
80
74
97
74
97
107
99
95
80
77
102
78
105
89
99
101
83
92
100
93
92
81
72
103
71
92
73
98
74
74
92
90
109
80
89
98
80
81
108
85
85
84
83
97
102
93
80
94
96
107
81
94
88
74
87
93
84
90
108
91
85
71
104
87
75
82
85
94
98
80
74
93
85
82
85
107
88
77
84
74
73
82
94
80
82
104
94
81
72
105
104
103
104
83
87
108
91
104
109
87
86
104
92
102
104
93
93
107
70
103
87
90
89
73
83
106
90
84
86
98
92
107
70
101
107
86
96
97
76
82
97
108
93
105
99
73
102
79
107
98
104
85
81
93
93
73
72
108
73
85
94
96
87
78
102
70
102
72
92
85
78
105
88
86
78
99
87
85
96
78
95
95
95
77
90
100
95
80
76
80
94
82
80
92
105
108
79
90
74
89
107
81
97
75
92
101
97
79
80
83
108
108
104
91
90
97
89
103
78
103
88
99
89
101
98
70
99
83
99
96
86
82
101
100
86
90
91
72
86
91
86
90
93
104
104
102
73
72
95
93
74
103
84
96
82
109
77
93
84
77
72
81
107
73
81
87
108
76
78
95
78
72
96
99
72
97
101
71
76
74
92
95
100
78
80
84
90
74
73
98
92
81
103
92
87
71
97
73
91
99
93
100
80
79
72
78
71
97
88
94
76
71
96
84
107
94
100
82
104
100
78
76
107
87
88
90
108
109
75
83
84
93
95
108
92
102
84
98
97
87
81
108
105
79
82
92
79
86
79
104
93
75
107
108
90
79
99
74
98
89
96
77
102
76
78
90
91
95
109
95
95
75
71
105
73
82
108
81
104
109
107
94
104
87
82
73
88
89
103
93
87
109
96
86
81
71
72
83
76
104
107
103
96
93
100
108
78
104
100
73
71
101
94
86
89
96
89
76
86
109
94
83
93
96
106
78
109
86
86
74
103
91
101
103
108
93
94
86
87
105
75
108
76
93
73
93
96
94
81
93
107
75
78
99
76
73
96
95
107
72
96
93
77
70
101
74
91
83
78
70
100
93
89
91
77
93
76
86
102
105
106
91
95
83
80
85
98
106
96
102
90
87
109
84
101
83
105
78
78
95
100
101
102
101
102
94
92
77
94
86
106
73
83
87
74
109
107
91
105
106
75
78
75
98
95
104
103
97
106
91
92
82
71
99
100
79
89
76
104
85
73
72
85
87
94
88
85
106
105
82
104
73
105
85
85
97
108
73
100
88
88
106
86
90
97
87
94
100
91
85
82
77
99
82
101
89
81
79
71
80
72
77
96
103
105
91
88
109
77
70
98
96
106
107
74
80
96
105
85
93
84
107
88
77
85
84
108
97
101
75
104
80
74
74
88
84
109
97
92
108
74
72
92
81
90
101
98
85
101
98
80
104
100
107
108
77
95
95
106
85
90
109
97
107
77
81
80
72
107
71
106
103
75
94
71
107
78
73
78
103
96
82
103
79
75
72
86
86
80
83
77
103
87
93
105
96
81
83
88
107
100
92
81
70
87
105
85
94
71
78
76
72
81
88
99
81
72
88
77
94
82
79
95
86
86
106
96
94
104
104
89
109
80
81
89
82
104
105
109
98
77
77
86
95
72
93
91
109
77
83
81
87
75
92
95
97
85
92
71
103
73
103
74
102
71
77
99
81
100
109
79
88
88
77
91
91
100
97
103
109
72
82
74
79
100
89
94
82
93
109
85
90
107
88
83
71
105
73
102
77
100
101
108
70
103
95
100
78
102
91
96
96
106
77
105
96
101
87
107
80
78
74
74
70
95
93
85
78
85
84
98
108
72
83
83
85
91
75
72
95
78
83
93
94
83
99
85
88
93
85
102
107
88
78
79
93
77
92
95
84
84
79
72
80
87
92
84
94
77
72
71
86
108
106
86
103
98
93
78
81
102
92
71
83
90
87
90
78
92
109
98
106
86
74
95
80
107
91
88
87
90
71
98
83
80
88
83
83
81
74
92
82
86
92
79
96
86
93
94
89
70
89
84
102
75
84
95
107
90
77
86
74
109
103
103
102
105
92
77
82
86
83
96
98
78
108
93
74
82
105
80
86
81
71
103
90
107
93
89
75
101
101
78
78
101
73
97
79
104
79
99
84
98
71
106
99
78
101
106
81
79
75
106
77
94
88
82
109
93
78
92
103
92
105
89
106
105
108
109
102
85
104
78
105
109
71
72
76
70
86
77
109
77
106
99
87
93
100
78
103
82
87
72
79
70
89
70
88
74
89
101
91
104
88
100
82
102
91
76
101
94
88
94
95
75
70
91
74
78
74
82
71
74
88
101
107
93
78
109
95
72
79
88
87
97
79
87
77
79
90
77
70
93
82
85
93
75
89
107
95
89
91
102
71
101
103
108
75
103
104
79
79
91
79
78
104
79
108
95
83
86
77
92
95
92
93
83
73
107
72
106
86
109
86
83
102
75
71
76
79
101
102
106
104
83
73
96
103
100
96
98
109
92
107
103
96
91
73
71
73
84
70
73
96
91
76
95
76
91
94
70
103
71
73
73
74
95
92
109
93
94
74
82
97
105
109
104
82
98
93
105
87
94
97
86
91
75
85
85
105
79
85
88
108
77
80
105
109
89
97
101
80
102
90
95
73
85
74
87
83
73
73
106
73
81
105
75
105
85
80
74
85
85
107
92
100
94
100
84
105
79
95
105
106
107
98
103
100
79
99
75
108
71
86
97
89
76
79
95
97
105
93
104
81
102
88
90
88
76
77
73
102
82
95
88
106
103
72
108
73
73
88
108
86
77
100
94
102
72
83
91
74
78
77
78
107
73
94
81
105
77
106
80
84
81
88
82
87
104
100
70
74
81
88
74
95
107
83
73
95
93
92
102
70
86
72
84
108
72
99
81
77
90
107
74
92
70
75
96
91
71
87
91
102
96
107
78
89
105
89
107
70
99
83
80
92
95
109
75
92
81
95
90
94
75
74
70
92
79
96
81
85
92
81
109
77
78
90
79
82
87
97
92
98
106
71
90
100
106
101
74
100
94
107
92
107
103
84
101
70
109
102
93
93
79
73
75
103
98
109
93
76
76
73
90
99
106
97
91
102
86
104
105
98
93
102
88
99
104
84
85
72
72
102
92
75
88
87
102
92
78
83
72
78
74
81
95
89
82
73
99
90
101
85
89
80
102
73
70
96
92
103
104
92
80
71
103
79
102
109
92
84
80
109
73
95
71
83
98
100
91
86
90
80
85
100
97
93
107
92
76
73
92
80
93
96
100
90
77
81
98
104
88
95
105
83
103
81
76
100
83
93
85
80
89
72
103
78
105
96
74
94
100
78
104
101
77
70
102
102
87
89
100
99
79
85
105
92
83
91
97
86
99
74
72
96
87
98
91
75
98
99
93
88
85
71
103
70
95
77
100
92
99
71
108
108
107
103
103
96
76
93
101
73
105
84
83
78
101
70
97
90
99
93
74
81
88
100
107
76
99
93
95
75
100
92
74
83
83
83
93
96
74
95
74
109
70
91
88
105
89
92
105
92
100
70
90
98
100
101
74
71
106
94
95
92
87
102
77
81
71
98
105
100
93
89
78
81
104
104
77
90
77
85
82
88
85
78
108
107
81
74
93
70
83
71
76
71
78
86
103
70
88
93
76
91
70
108
106
77
89
81
83
88
97
79
85
103
95
101
74
107
71
99
100
82
102
82
77
75
72
109
70
73
77
106
78
70
92
94
70
106
89
104
106
92
107
100
74
104
73
107
74
74
95
80
87
90
83
103
99
81
101
89
83
75
78
107
79
109
104
72
97
104
86
100
98
86
77
74
105
92
100
96
93
90
88
90
101
95
75
92
102
96
78
76
94
91
108
95
86
102
88
90
109
102
90
84
82
109
95
75
74
107
95
108
83
96
98
71
72
97
77
98
102
97
74
101
86
106
94
109
101
84
86
109
72
109
100
90
99
74
79
78
92
76
98
87
108
71
70
105
78
103
89
97
83
83
73
83
84
87
92
87
74
77
106
103
107
84
109
101
94
76
95
106
96
104
101
106
87
76
75
86
80
81
80
98
92
79
83
80
81
91
78
100
94
90
82
90
86
92
76
109
104
100
70
89
78
86
81
99
86
106
73
104
70
97
73
107
83
93
89
75
91
94
109
76
72
98
80
108
88
92
97
82
100
97
85
74
94
79
93
107
95
95
105
93
95
108
101
109
94
100
98
84
106
87
96
95
82
94
84
87
83
85
93
83
81
108
91
109
104
74
73
107
83
91
82
95
109
109
106
97
78
109
103
107
104
87
88
93
82
101
108
98
93
71
102
75
94
76
80
90
100
88
102
90
98
87
92
85
102
73
74
93
75
87
87
104
91
93
76
102
74
104
82
93
79
97
71
87
108
90
76
97
89
89
99
95
99
83
80
79
107
91
85
75
108
75
106
75
109
90
92
106
72
102
93
88
73
84
77
72
83
70
96
98
104
100
80
108
88
94
93
92
84
89
89
90
98
104
72
84
76
93
72
89
77
80
102
106
99
103
74
70
91
79
107
85
105
90
102
104
103
73
91
78
104
83
72
98
102
103
106
75
97
79
97
108
80
102
92
101
85
83
101
97
108
70
102
91
84
90
76
98
105
91
74
76
105
90
81
98
78
71
95
88
107
79
86
97
107
71
87
104
86
79
94
82
109
106
72
90
80
85
74
100
102
109
99
86
93
102
85
84
90
98
96
76
84
78
95
105
108
83
87
92
95
92
94
71
71
84
97
107
87
74
104
109
70
79
93
85
85
102
99
87
100
109
91
109
106
76
93
77
100
76
77
103
96
98
108
74
98
75
97
103
87
82
71
77
104
96
97
87
73
75
75
107
107
90
82
101
70
104
87
91
75
96
96
74
81
96
80
81
78
96
73
84
73
76
102
76
101
72
85
109
73
100
85
96
70
81
109
82
72
83
101
101
105
87
97
77
74
78
83
78
99
106
72
84
85
81
78
90
70
80
91
71
76
106
98
87
78
89
106
86
80
100
72
106
109
82
86
105
90
85
76
87
104
99
102
101
98
97
85
96
104
72
107
94
108
77
81
78
99
83
91
79
93
84
87
97
88
96
89
108
74
85
107
94
95
72
75
73
106
91
86
100
94
95
75
104
103
76
99
70
84
103
88
79
81
82
98
76
91
82
98
103
98
94
105
106
86
91
104
71
91
80
102
103
95
102
85
103
78
95
70
87
107
100
71
85
90
71
82
82
108
80
95
99
82
102
108
83
86
76
77
79
78
79
87
74
98
109
81
97
105
80
100
74
102
106
74
105
89
75
70
75
107
89
90
79
106
96
95
105
94
82
80
96
99
105
104
107
88
83
109
80
71
84
93
85
94
82
72
83
70
109
86
71
98
102
99
106
89
98
79
76
88
70
91
92
74
85
89
84
97
104
75
107
82
94
87
74
75
84
98
91
80
86
82
102
71
94
96
102
89
92
70
76
98
72
101
90
82
92
83
99
101
101
91
105
96
83
92
103
85
71
103
97
73
77
83
96
108
106
83
90
96
95
91
73
93
87
71
82
101
78
85
74
92
106
99
100
106
94
84
78
76
108
87
93
103
75
88
109
103
81
83
70
103
99
87
83
81
91
79
85
105
82
79
103
77
78
109
91
72
101
77
70
79
74
98
79
107
79
98
101
72
76
81
74
94
71
104
74
94
77
80
81
103
96
105
108
97
82
88
94
97
72
105
102
87
82
89
95
93
82
95
73
97
107
84
94
76
108
88
79
100
77
71
103
86
89
84
80
104
77
101
85
95
88
95
72
76
108
107
93
93
108
89
87
73
77
84
74
99
74
79
104
90
82
102
103
96
109
96
91
98
96
98
80
88
109
104
107
86
103
80
106
98
108
88
88
87
107
105
102
97
80
83
86
97
93
84
74
107
92
99
109
87
98
82
71
77
102
91
95
93
99
105
76
101
106
82
109
100
92
76
90
103
94
102
98
89
78
89
86
97
76
103
86
94
93
98
74
70
84
96
76
96
97
93
101
102
71
89
108
72
81
92
94
101
93
96
98
90
76
102
93
72
104
75
102
81
78
76
106
75
94
71
74
72
81
84
107
77
75
77
87
106
105
98
106
74
101
71
72
100
103
98
93
80
102
104
77
102
79
79
85
91
85
105
89
78
74
71
104
106
93
76
101
100
93
100
87
88
85
93
91
102
96
101
72
99
102
76
91
102
96
75
92
88
73
77
89
103
101
85
82
93
70
88
85
76
93
84
83
85
70
74
82
98
71
88
108
80
82
89
88
73
80
97
80
96
89
76
99
78
106
102
75
93
94
73
81
99
80
82
104
82
95
108
103
70
83
90
83
78
95
79
101
78
88
72
87
84
109
108
109
74
96
99
106
107
100
77
96
97
94
108
92
103
105
109
105
91
85
75
100
94
88
108
104
78
71
104
107
92
71
103
88
98
95
99
87
71
104
94
82
102
88
108
81
83
99
108
72
96
108
99
79
96
106
106
107
82
94
74
99
71
108
109
77
87
72
70
90
89
99
107
71
106
78
82
85
88
70
106
76
87
97
91
108
84
104
97
76
96
77
77
102
103
71
108
98
105
75
76
99
105
93
85
103
108
96
108
98
76
106
78
109
78
99
90
91
89
104
79
85
80
99
89
78
98
85
70
89
72
71
70
106
94
101
98
74
109
76
108
103
80
86
80
107
94
75
89
100
80
106
94
92
84
73
95
98
89
81
91
73
91
101
107
103
73
100
101
72
85
77
73
76
92
107
72
70
71
97
87
103
97
103
102
83
99
94
101
74
76
105
73
105
92
84
100
74
98
105
107
89
84
73
108
89
72
96
71
71
89
108
76
100
84
95
101
81
92
75
78
70
82
93
90
91
89
93
80
99
73
85
78
102
82
72
92
94
84
86
108
84
100
101
104
107
89
89
101
85
104
95
87
70
109
78
109
86
75
96
103
90
94
88
101
77
78
83
105
75
79
84
95
78
71
75
100
77
104
86
77
73
87
107
74
106
91
100
83
106
74
108
105
72
80
89
96
103
82
82
75
88
82
83
73
78
107
79
87
104
72
101
102
92
80
102
86
82
109
86
83
103
77
89
103
83
97
80
88
101
108
100
83
101
85
107
105
106
97
96
89
78
82
103
87
86
85
105
75
102
99
101
93
93
102
96
72
77
71
71
76
93
109
90
104
90
72
107
87
92
70
103
75
77
70
84
72
95
84
100
82
86
93
96
73
100
107
73
76
76
91
83
84
81
92
108
107
80
75
91
92
90
93
108
84
95
108
91
73
88
78
78
106
91
74
72
96
108
101
76
92
90
92
103
89
104
107
97
98
109
101
84
103
94
85
94
108
98
108
84
83
87
91
88
92
107
100
77
73
93
76
95
71
109
76
80
98
105
104
73
103
82
103
102
80
79
109
109
100
88
93
88
101
101
91
105
78
96
73
102
93
88
80
85
109
79
81
73
103
94
92
93
98
96
97
72
88
93
86
107
91
104
97
95
80
106
77
74
82
72
98
91
74
107
96
76
86
71
84
104
88
102
103
85
81
93
107
75
86
103
80
93
97
105
86
96
90
79
107
74
88
109
71
93
90
103
102
100
99
109
93
101
70
89
97
72
102
75
109
95
106
103
107
86
71
109
101
108
109
98
107
74
102
85
87
84
109
93
80
86
76
81
92
98
88
87
106
71
89
81
78
75
84
92
86
92
91
99
77
83
81
77
78
82
78
74
92
87
73
107
79
74
79
106
97
108
87
72
89
105
104
70
80
71
85
78
82
79
88
91
72
75
84
70
108
89
103
83
84
79
88
91
74
79
70
75
99
93
82
108
71
103
93
108
73
108
76
102
104
88
75
85
108
95
72
87
108
104
106
104
96
100
106
107
75
70
88
97
99
85
97
107
100
72
71
98
82
98
106
82
70
87
78
81
82
85
109
94
104
86
86
96
88
93
93
101
96
94
93
77
106
84
108
85
72
109
71
96
75
80
101
107
100
75
104
80
90
94
81
85
70
92
91
101
75
106
99
72
107
72
86
87
93
89
108
83
107
86
108
70
99
87
72
97
84
76
105
104
108
73
78
107
103
81
106
78
107
84
107
100
82
92
74
87
71
100
72
83
108
90
102
108
92
79
104
93
92
92
98
106
72
87
75
104
107
86
81
99
78
75
102
89
93
73
106
94
79
94
72
70
109
90
77
82
100
103
71
77
70
80
106
87
109
87
89
92
90
82
98
109
101
86
83
71
78
103
108
82
92
87
77
101
76
101
74
104
84
95
84
107
80
83
73
109
76
74
87
87
83
86
85
82
80
94
106
94
83
88
90
100
71
86
86
71
98
100
76
86
92
96
95
85
91
107
80
85
109
79
109
97
80
90
89
75
87
74
99
70
102
89
76
85
80
84
83
107
102
94
92
109
91
90
89
93
70
80
102
96
80
71
91
82
71
93
94
88
97
75
87
103
109
109
96
76
79
88
93
83
82
84
80
91
91
100
73
97
83
107
107
93
93
90
82
90
97
80
108
82
104
81
109
89
105
81
80
80
83
107
75
77
92
85
106
89
82
103
79
99
88
76
88
107
75
71
89
105
93
98
76
87
106
91
78
84
73
96
108
75
85
76
109
75
109
90
106
88
105
82
107
82
102
90
76
100
99
103
104
104
101
108
109
97
72
73
96
97
71
72
74
100
70
76
92
92
77
99
102
71
88
86
86
78
85
102
103
103
93
81
88
109
103
109
87
86
82
76
94
78
89
89
100
83
92
107
79
72
92
103
104
101
102
98
87
95
93
95
74
108
73
78
104
90
92
78
91
72
87
100
101
85
80
108
97
79
71
96
70
95
82
79
72
84
109
79
87
109
85
70
92
83
103
109
96
93
76
79
72
94
89
96
79
84
84
89
106
98
89
83
97
81
78
90
84
75
99
109
93
88
71
91
85
92
71
95
97
80
103
71
86
87
78
105
74
109
93
95
102
99
96
86
89
78
81
89
70
81
73
83
73
104
81
93
77
87
96
92
106
81
93
86
93
77
87
71
97
86
99
79
101
75
78
70
109
102
107
76
101
72
103
82
107
109
100
100
93
92
99
99
99
82
93
70
86
103
108
73
89
73
93
81
103
88
73
102
94
106
84
74
74
103
93
81
76
103
104
105
76
75
72
84
101
98
97
92
96
93
100
95
92
77
108
99
101
91
74
76
90
96
108
99
108
70
91
105
99
95
76
108
99
92
87
89
87
73
95
99
92
79
97
106
98
82
88
88
70
84
80
104
83
89
98
104
83
93
104
97
72
99
74
84
96
96
71
87
73
86
71
97
105
93
105
106
73
87
105
70
98
99
85
91
105
94
71
105
103
92
101
106
108
84
104
90
85
93
82
73
84
99
75
70
87
79
101
70
99
78
103
86
106
73
79
77
82
101
100
101
73
99
90
99
70
91
71
85
74
100
86
109
70
71
82
83
70
101
85
71
87
70
105
79
109
100
95
93
88
104
86
93
96
91
71
102
79
78
71
70
77
70
100
99
90
106
107
96
71
80
97
100
70
80
96
97
83
70
85
100
75
93
96
80
92
90
108
104
77
79
79
101
80
97
84
108
101
109
79
76
73
78
80
86
102
106
100
94
77
77
105
97
105
78
73
95
70
73
96
83
106
109
97
81
75
71
93
72
97
102
102
80
85
72
92
101
97
109
101
92
74
75
82
109
100
82
72
74
101
89
100
103
93
95
107
83
84
71
89
102
93
78
88
99
89
71
83
80
103
81
107
83
98
79
106
87
91
104
78
104
74
80
104
107
95
71
102
82
109
104
94
79
97
101
108
94
71
89
102
103
87
102
70
92
70
97
95
104
71
74
107
89
75
96
84
96
95
100
106
71
93
84
85
82
78
76
108
72
79
88
85
107
73
101
85
86
77
96
90
88
79
95
87
79
74
79
104
94
93
70
79
105
77
106
86
104
91
73
102
90
71
99
71
108
77
92
81
107
95
94
107
70
83
79
97
95
102
95
91
76
81
93
108
81
84
82
81
104
80
86
99
107
73
97
94
97
76
93
74
80
76
90
89
107
76
98
91
92
88
71
71
106
92
73
75
94
98
92
93
107
78
81
107
85
108
92
96
83
101
94
88
79
77
84
94
78
104
72
91
91
79
102
90
89
109
106
74
81
87
72
92
80
84
84
77
101
97
107
94
74
88
97
90
104
73
76
104
96
105
89
106
87
91
94
85
89
93
80
90
106
84
94
108
81
82
102
107
77
79
102
104
77
101
93
90
107
73
99
88
80
71
94
72
86
85
70
104
73
107
92
91
88
80
86
78
75
73
78
91
109
102
93
93
108
101
106
86
79
92
79
78
103
105
101
109
72
76
78
90
74
79
100
76
84
84
105
81
104
104
94
94
93
70
96
103
80
80
71
71
76
90
89
74
100
103
71
80
103
88
78
77
92
73
89
95
101
70
101
71
72
79
109
100
75
96
95
76
73
92
70
77
107
83
73
99
80
105
109
90
104
89
70
87
93
74
100
82
84
89
75
86
82
102
83
77
82
91
74
93
102
75
86
71
92
96
96
106
99
104
109
91
93
104
79
81
80
105
107
86
104
98
100
104
95
78
88
80
96
72
81
82
96
92
103
95
94
96
108
103
84
75
81
107
78
76
95
99
75
86
88
99
98
91
78
91
71
102
92
86
70
94
108
83
102
96
81
91
90
99
95
98
100
106
79
74
91
101
95
108
95
82
89
80
97
83
91
72
89
71
87
103
107
93
100
71
105
109
76
76
103
74
79
91
90
78
97
72
91
92
95
78
107
100
72
87
103
90
97
70
109
72
73
107
87
109
71
80
89
85
81
74
86
92
94
106
87
102
86
92
94
80
96
87
72
100
76
86
97
88
74
71
77
105
83
82
92
71
79
108
109
96
94
101
86
81
83
94
75
98
109
103
109
74
104
96
93
98
92
94
105
78
85
73
78
82
99
84
79
98
90
84
85
93
100
100
88
98
78
80
101
74
80
105
104
96
105
105
107
79
98
71
79
108
98
85
91
92
98
72
107
94
74
88
90
76
84
88
108
93
102
72
77
71
86
90
70
92
89
106
89
83
85
73
74
104
73
99
89
78
89
71
86
84
77
71
84
85
84
82
81
109
85
78
84
104
95
97
96
77
74
106
72
108
85
99
91
76
105
91
107
104
86
105
88
75
85
107
98
73
102
104
79
103
106
98
90
94
107
72
101
76
83
98
96
92
82
71
82
71
92
92
95
107
75
86
82
107
81
74
101
87
96
106
80
85
85
75
70
96
82
109
102
80
76
106
80
82
108
75
102
74
74
95
77
78
102
102
100
76
73
93
101
95
108
82
89
86
70
74
81
86
76
97
106
81
108
98
89
78
76
72
95
99
97
77
94
81
97
104
109
87
92
108
73
90
89
70
93
91
77
71
90
80
98
76
98
104
77
98
90
81
80
102
86
77
74
99
106
77
91
101
78
91
100
78
73
102
86
87
106
98
91
82
82
79
98
77
86
99
102
106
108
90
81
92
75
109
109
84
72
80
100
93
102
89
104
101
78
94
101
93
72
77
78
83
97
82
101
94
109
77
87
89
70
74
79
76
85
77
106
103
89
101
84
80
70
88
88
95
72
71
77
72
96
92
103
81
102
73
108
93
72
99
97
104
89
71
91
84
93
92
90
107
76
89
90
86
102
104
77
85
78
91
94
96
98
77
79
94
105
101
77
91
86
95
82
79
76
107
75
77
91
98
99
89
106
70
104
78
85
97
93
103
97
105
72
100
101
83
84
96
91
85
82
88
96
104
107
78
104
70
97
87
86
96
103
89
99
107
86
90
91
100
97
85
72
74
75
78
82
91
104
88
76
89
105
76
85
78
84
101
93
78
76
74
94
85
92
83
86
81
90
72
106
104
73
102
92
100
103
76
96
86
89
77
100
90
84
78
78
82
86
83
74
85
75
101
84
97
100
103
91
94
93
89
95
101
78
92
77
106
76
95
96
93
97
81
81
103
82
72
90
83
87
81
88
106
72
81
80
101
70
92
107
84
71
100
92
100
78
77
106
97
75
94
81
96
95
106
78
72
90
80
90
73
80
79
78
102
106
86
97
72
105
84
86
83
96
91
105
92
99
82
75
107
74
75
108
85
82
105
73
70
78
87
94
85
74
101
85
80
73
100
80
106
95
101
107
98
97
92
102
93
75
83
81
95
106
76
105
86
108
94
74
96
85
93
77
78
84
83
85
96
85
83
76
83
87
80
83
97
104
81
82
96
104
87
92
77
100
90
71
98
84
105
106
78
87
89
104
76
101
81
101
87
94
75
94
76
73
92
77
88
103
96
101
76
81
88
91
94
102
109
86
74
74
106
81
88
76
77
78
88
87
70
77
91
84
83
109
92
93
107
74
72
100
73
72
73
109
92
103
73
74
93
88
85
94
96
70
103
108
87
80
73
105
99
70
95
79
84
106
76
91
107
106
88
81
78
83
72
86
76
80
70
103
74
82
99
88
108
106
82
103
72
86
71
99
72
80
88
87
102
109
99
99
77
108
72
85
85
85
80
107
88
93
102
84
83
87
76
96
71
100
74
70
104
71
91
77
77
98
72
108
105
109
97
109
105
81
72
79
88
103
73
84
95
94
88
91
105
93
73
87
86
101
93
87
94
107
99
71
89
77
86
78
85
91
94
105
95
72
97
81
93
96
99
97
83
92
100
99
92
108
97
75
76
77
109
99
100
75
90
97
70
72
106
102
97
94
91
88
95
98
82
98
85
89
87
98
90
79
82
108
108
85
92
77
80
107
98
91
80
71
93
99
106
108
85
90
78
79
79
96
72
102
92
106
71
98
92
71
85
70
83
102
105
96
99
94
81
96
82
93
99
70
78
85
86
97
86
108
76
93
74
99
91
101
86
105
85
82
107
104
76
74
94
97
74
108
109
76
72
91
79
99
101
73
92
95
106
70
77
74
83
97
85
71
80
70
104
87
85
81
90
70
103
98
108
101
96
98
91
105
85
84
105
83
102
71
79
89
85
100
107
94
91
99
79
86
79
106
82
76
88
72
76
79
101
95
84
98
99
81
83
107
104
85
70
95
93
89
96
108
97
82
103
86
91
82
72
78
104
89
77
72
70
71
86
92
96
81
86
104
83
106
79
84
88
100
80
70
92
79
78
94
76
73
73
84
76
94
89
97
74
74
88
76
71
101
98
102
70
71
98
96
88
92
102
99
87
97
102
79
81
88
105
97
95
72
82
79
71
89
81
102
86
70
100
94
106
99
79
107
80
73
97
80
73
104
81
103
99
93
81
108
77
100
106
107
82
104
96
95
105
88
88
85
92
92
95
79
73
89
77
101
102
104
98
89
72
78
79
74
101
80
104
92
88
93
80
78
101
80
94
76
93
70
95
101
108
93
75
72
82
70
92
91
87
92
93
92
91
109
104
99
76
97
91
71
105
88
83
96
87
89
89
102
90
89
108
104
78
88
80
87
70
74
77
92
77
76
75
103
75
70
109
82
82
80
83
93
98
72
84
75
97
91
83
109
87
81
82
101
106
70
84
70
109
102
88
98
102
105
99
108
104
104
76
79
102
71
78
78
105
107
98
86
99
93
75
89
101
103
94
92
87
103
73
107
86
98
83
76
75
91
93
89
81
92
104
98
79
83
102
82
87
81
101
73
85
96
106
74
84
75
74
85
70
74
87
96
91
93
96
74
108
105
82
96
88
89
102
83
70
103
91
98
108
91
78
84
79
91
86
96
84
76
109
81
95
103
100
100
82
72
78
108
80
107
97
88
99
80
104
99
83
73
100
100
71
80
107
87
81
79
105
100
93
90
71
94
74
104
106
87
84
74
78
74
89
90
106
97
91
96
93
72
93
89
105
105
98
82
79
98
74
91
99
84
78
87
73
109
78
98
72
73
73
84
87
100
93
70
101
83
104
74
77
99
86
104
90
106
91
70
87
109
91
72
90
105
96
80
106
79
109
80
71
98
73
77
97
74
85
78
83
102
97
94
81
101
100
78
80
109
75
79
101
104
76
85
72
84
99
72
74
106
109
80
78
106
91
86
92
76
73
107
99
106
96
99
104
76
72
74
106
100
74
74
88
75
93
91
93
99
79
109
98
96
71
106
85
97
72
87
73
98
97
100
78
87
75
106
98
90
98
109
72
109
72
90
80
87
94
82
71
96
100
79
105
71
107
103
84
95
89
87
79
77
100
106
99
109
107
90
96
93
90
94
83
74
84
93
94
98
94
97
72
90
97
79
87
73
80
103
108
100
91
95
86
83
92
85
106
84
88
92
97
95
71
86
98
90
72
83
105
77
78
105
80
73
80
85
77
76
104
89
92
104
81
102
71
78
71
84
99
92
82
95
101
70
83
92
77
76
74
77
89
73
102
105
101
84
87
80
98
74
73
101
100
99
74
85
73
76
86
71
95
102
104
84
109
100
92
89
76
82
75
91
95
108
78
74
89
93
95
89
94
98
108
93
109
78
101
75
92
71
81
95
77
80
91
75
88
72
91
101
72
99
90
100
90
96
94
76
107
99
71
103
98
84
97
103
86
79
75
97
89
109
71
100
101
99
100
91
86
90
96
95
104
71
73
89
106
100
86
78
92
86
105
75
101
72
104
107
72
88
100
79
87
88
74
101
96
96
104
109
87
74
106
80
85
70
86
73
72
87
77
104
75
78
107
93
79
102
80
98
73
79
72
108
70
71
72
91
93
78
82
88
100
104
107
71
70
104
91
101
75
83
76
99
104
99
94
92
88
102
107
99
83
102
103
105
71
74
98
94
84
76
81
101
108
92
73
109
107
101
86
76
91
103
91
103
99
85
106
96
73
80
103
87
77
92
80
77
97
72
104
101
86
76
84
99
96
70
77
73
108
102
87
79
80
83
74
107
77
85
95
106
73
100
109
78
80
88
84
105
84
91
97
104
90
101
76
75
70
94
71
76
98
73
96
102
99
79
96
104
77
89
109
106
89
74
101
95
83
76
83
108
88
74
87
72
96
103
97
92
72
109
95
93
92
79
96
88
91
99
87
93
83
90
99
95
95
107
102
83
70
87
93
103
94
101
80
85
72
73
91
103
86
105
100
93
98
105
78
102
105
87
109
91
72
89
106
98
109
85
81
81
98
97
90
105
77
109
77
70
83
109
74
84
95
107
79
84
101
85
99
95
84
83
83
98
75
92
90
106
91
73
95
82
101
98
106
107
102
80
102
108
72
82
85
90
99
92
104
81
76
85
79
108
92
71
89
81
92
85
75
96
103
104
102
86
98
82
84
101
87
95
107
70
80
72
94
98
82
106
79
77
79
87
106
100
97
100
94
73
100
74
101
100
91
104
79
84
78
97
105
70
82
106
99
85
106
96
99
91
85
87
84
79
103
109
91
72
108
80
108
81
82
101
79
85
103
83
73
100
99
95
81
79
79
82
80
105
78
96
108
102
98
90
95
96
91
102
83
79
108
84
81
97
94
85
83
108
73
96
86
87
80
77
76
79
92
77
96
97
108
89
75
74
100
82
95
103
99
89
83
83
73
81
102
107
97
90
95
72
99
87
92
109
77
97
89
79
91
93
100
109
109
75
79
80
104
81
85
93
96
88
97
97
84
86
91
101
98
107
108
90
84
95
92
101
83
92
106
70
84
104
92
78
72
103
79
80
96
70
81
82
72
74
101
75
108
74
88
71
73
106
97
97
93
74
86
88
89
79
109
85
77
96
79
100
93
91
108
81
75
97
99
101
78
103
105
97
73
79
76
98
78
70
72
102
93
71
82
86
103
96
75
108
88
100
87
86
101
89
86
76
90
98
91
87
95
87
99
90
76
92
72
70
74
71
71
88
76
102
71
94
102
105
84
74
101
83
74
77
87
95
85
88
108
97
104
79
77
106
84
71
84
72
92
106
92
78
96
104
90
95
102
96
101
105
71
95
74
87
73
89
91
87
88
78
73
70
83
94
87
73
77
80
81
77
96
102
109
81
81
70
96
98
80
93
100
71
102
93
81
95
76
81
98
104
73
109
89
105
92
75
70
82
83
108
83
82
84
108
99
105
90
81
101
95
99
85
92
77
71
81
81
91
74
85
107
73
78
70
85
106
99
79
96
78
89
83
99
95
72
106
81
94
93
106
98
79
103
71
100
74
75
78
99
99
109
78
78
108
72
89
108
98
80
90
95
101
85
86
88
84
99
80
108
97
80
80
85
104
86
108
76
94
106
90
77
71
107
76
91
88
103
85
87
87
90
107
75
88
89
93
107
81
70
87
86
80
101
92
89
83
78
75
108
81
83
109
106
71
77
70
91
109
106
106
100
106
99
74
98
109
91
95
99
86
97
78
86
93
98
109
83
89
88
77
101
83
72
104
95
83
75
93
109
83
83
105
93
84
73
72
70
86
84
93
96
108
76
86
108
78
79
92
93
96
84
81
102
76
87
83
86
76
93
96
98
82
104
90
74
75
77
109
79
73
83
94
90
105
87
79
81
77
94
96
70
90
74
88
80
84
97
93
78
88
106
80
97
90
74
76
89
81
70
88
75
88
106
91
106
70
97
80
76
72
86
99
78
70
74
106
106
99
78
79
87
88
100
85
90
92
97
104
84
109
94
82
92
74
103
92
103
108
91
98
101
73
94
106
85
99
75
102
76
73
70
88
90
101
97
78
85
94
101
70
82
94
91
83
105
71
83
72
89
81
93
108
92
87
95
71
76
75
103
93
78
95
97
105
86
77
74
107
91
73
77
101
92
78
86
74
99
78
86
87
81
79
87
79
82
90
97
90
99
85
92
86
73
83
70
89
75
82
103
109
91
94
75
109
81
100
95
79
97
97
104
107
94
76
89
99
94
74
92
82
72
73
83
82
92
70
86
97
98
75
103
100
109
99
77
87
89
80
78
75
91
71
89
81
96
98
107
71
97
103
71
80
85
87
83
80
95
81
73
97
98
87
100
95
106
82
92
99
77
74
83
94
105
104
80
76
72
80
92
107
98
97
100
76
89
71
86
89
107
90
71
72
99
96
108
95
81
97
103
96
107
106
93
79
92
92
70
90
93
109
85
96
89
104
73
109
109
73
98
93
103
75
80
70
94
109
104
108
98
90
104
103
70
72
78
71
91
84
99
91
71
107
102
86
86
100
95
107
95
77
96
99
75
83
99
93
89
78
96
93
94
99
85
79
91
100
76
109
95
70
103
104
102
81
79
100
90
85
109
79
82
99
72
92
104
106
97
82
103
99
91
98
108
102
88
73
76
70
79
74
95
107
90
73
75
79
103
99
108
76
101
81
107
75
106
87
109
103
74
80
109
108
107
108
92
82
87
77
80
87
81
86
91
99
107
85
109
109
72
82
84
87
109
80
76
77
102
77
90
100
94
101
93
81
78
91
103
87
82
106
79
85
81
72
107
103
76
76
109
83
104
98
107
79
87
101
76
106
107
93
87
80
93
89
70
98
77
94
107
77
83
88
106
97
70
96
72
101
99
96
74
74
88
83
104
77
81
88
99
104
90
96
77
91
86
77
104
87
80
94
75
92
89
80
96
76
73
96
97
71
81
78
100
72
72
108
100
79
84
104
74
105
75
109
91
77
83
73
108
104
95
90
100
92
75
106
73
108
90
77
102
91
77
81
91
86
103
94
85
103
79
101
80
75
94
109
74
70
106
92
105
102
73
83
80
93
74
93
70
83
97
74
96
83
89
87
80
100
103
80
109
84
100
72
93
72
91
104
104
103
76
70
88
103
104
72
94
79
94
82
94
72
85
77
101
78
75
96
90
107
102
106
75
77
73
97
106
95
105
85
80
86
88
105
95
77
74
99
102
107
94
97
105
106
88
78
80
108
76
77
97
81
77
78
104
84
87
103
102
71
97
85
95
92
72
99
96
102
104
73
89
95
108
97
88
91
88
70
86
100
84
94
78
80
108
98
83
88
102
91
97
106
75
79
95
89
82
76
83
76
98
100
86
92
94
74
106
90
102
84
73
88
107
74
88
70
99
86
100
105
102
108
91
71
87
76
87
102
71
77
70
101
103
92
109
83
93
109
79
71
82
98
96
71
97
90
95
85
97
91
107
71
70
91
109
86
85
75
95
73
95
77
99
91
81
72
103
106
89
90
79
82
75
109
92
89
85
77
84
92
87
97
89
106
72
95
102
71
77
93
80
108
106
94
105
93
102
97
75
107
90
72
99
83
75
87
84
94
72
108
86
75
85
87
93
90
98
97
103
98
94
90
81
94
80
77
89
107
79
79
81
85
80
88
106
106
96
96
80
87
74
70
101
81
99
101
72
95
77
97
79
95
105
105
106
70
88
84
82
84
84
96
106
103
98
105
101
103
107
104
72
82
107
100
81
72
105
77
105
106
73
102
94
78
102
90
99
94
100
107
76
106
108
87
93
83
81
108
75
90
100
102
85
96
91
94
107
79
71
76
88
73
109
81
76
104
85
94
85
109
74
90
80
100
105
74
98
104
77
73
84
83
74
106
102
97
81
91
106
78
84
109
93
77
91
105
106
91
109
77
72
99
82
87
84
98
97
82
74
102
86
79
96
91
87
109
99
102
86
100
95
102
81
94
89
95
105
87
71
72
72
103
90
88
78
85
82
109
77
94
91
77
84
102
104
80
81
103
109
93
107
88
89
93
94
95
91
85
88
74
91
80
108
98
85
100
101
98
98
83
77
103
96
85
70
88
99
92
97
95
107
72
77
88
80
84
75
105
75
81
88
83
71
97
98
81
80
87
70
78
91
109
105
100
78
94
85
106
81
93
71
70
93
109
103
99
108
99
72
76
74
81
96
106
82
93
106
74
108
73
90
99
93
75
88
94
87
72
98
95
75
93
83
83
76
86
80
74
70
91
84
95
87
87
98
94
76
90
83
109
79
106
81
78
96
86
108
76
98
99
106
92
88
98
108
103
79
74
87
77
101
90
80
83
90
98
92
95
94
90
95
92
99
90
107
82
109
76
75
95
87
79
80
100
80
86
108
89
78
105
85
75
97
81
92
87
75
73
71
103
71
84
76
92
96
90
79
92
91
95
86
79
95
101
83
77
75
88
89
106
98
74
106
76
75
97
96
84
99
94
91
83
79
72
107
80
108
80
103
95
74
93
93
83
105
83
82
95
98
80
100
98
81
87
78
105
98
89
76
82
90
88
72
86
102
109
84
85
74
85
81
81
75
80
95
92
109
91
102
107
77
78
93
80
70
87
97
98
70
88
72
96
70
79
101
94
101
109
71
78
103
90
94
90
109
71
78
73
100
91
79
97
74
82
75
84
78
106
106
86
88
88
75
86
73
99
108
107
84
79
83
97
100
70
70
107
80
89
88
99
77
93
101
96
83
108
88
96
91
80
106
102
71
80
94
101
98
76
91
78
73
107
106
94
74
80
80
76
100
72
78
81
72
79
103
89
103
84
82
73
84
82
81
98
83
80
97
101
81
107
83
71
86
106
74
70
81
90
102
92
98
75
80
84
94
83
103
83
70
106
106
98
81
94
79
105
108
72
108
85
103
86
108
109
90
74
84
89
87
91
78
108
90
90
77
108
102
96
99
71
89
94
104
81
107
109
108
83
75
104
86
70
91
86
101
104
77
84
104
94
102
90
105
91
82
85
79
72
96
86
108
101
95
72
84
78
105
71
95
89
95
88
89
79
102
99
80
106
104
80
85
70
101
105
87
98
76
76
92
97
85
101
90
100
97
81
109
90
76
85
81
83
73
88
83
73
78
78
99
88
82
103
101
96
101
79
72
97
71
95
77
70
84
85
100
76
93
103
92
101
74
93
90
80
95
104
77
92
93
85
103
85
107
103
102
85
77
100
83
95
107
78
98
96
93
94
92
79
101
108
106
78
101
105
106
89
100
104
71
71
107
98
100
79
108
106
89
109
93
72
81
100
89
90
99
86
88
88
88
106
105
70
108
86
109
79
105
101
93
88
72
74
94
76
97
86
84
78
102
103
93
107
98
73
80
73
103
73
86
99
73
80
95
71
109
108
104
73
87
85
84
89
82
79
104
98
80
83
91
85
92
99
94
86
86
86
105
84
96
80
102
103
95
86
73
109
76
97
104
102
99
89
96
89
107
107
96
102
87
102
90
77
85
74
87
71
77
106
98
108
92
84
72
108
106
95
87
106
104
76
84
86
86
88
97
74
108
105
103
103
95
102
96
104
95
76
73
95
95
86
101
95
84
85
109
91
81
73
71
101
98
86
93
73
96
83
72
90
77
103
92
85
104
76
85
109
83
96
98
87
91
74
98
95
72
74
100
82
86
92
107
102
90
87
82
86
81
105
76
107
94
109
103
104
90
103
106
84
97
103
100
101
90
85
79
107
95
84
86
82
79
81
90
101
88
78
75
95
88
90
101
91
86
108
105
104
93
88
86
77
97
81
103
107
76
95
78
106
75
74
81
76
93
72
85
74
84
108
72
91
95
72
76
76
78
108
96
77
80
71
73
80
74
108
97
103
81
73
102
86
74
93
79
87
87
96
91
101
93
72
74
75
76
73
87
85
71
76
71
103
92
91
91
85
77
91
92
75
81
99
88
94
101
108
71
98
95
98
100
94
100
99
72
85
80
85
73
102
94
92
99
102
97
108
77
108
107
108
88
93
99
92
99
106
92
96
98
71
99
78
96
77
73
84
75
90
75
109
103
103
94
70
86
98
79
99
70
85
74
80
75
95
72
101
87
74
87
73
95
85
93
74
80
74
76
100
98
74
77
73
99
96
78
95
87
75
101
72
79
88
98
86
71
96
104
109
84
86
85
86
86
107
107
97
99
101
77
82
85
86
93
88
100
97
101
74
70
74
101
82
70
70
85
95
91
104
83
77
75
86
95
88
96
83
85
73
89
87
91
72
92
92
92
98
75
82
76
101
108
77
93
74
101
77
81
82
88
79
81
85
75
106
85
70
84
84
101
83
83
78
96
83
72
93
74
97
102
99
75
104
104
78
94
103
100
86
103
104
85
93
105
100
109
74
103
97
98
78
89
70
72
99
98
93
80
106
95
82
80
84
74
92
74
107
72
74
81
90
71
88
90
106
85
82
88
78
109
80
74
81
91
90
96
71
74
86
84
98
99
96
94
102
97
89
91
86
91
75
78
96
89
107
79
86
83
96
100
103
79
108
77
102
105
97
92
97
103
77
85
76
109
89
74
79
103
70
74
78
70
81
75
87
109
105
77
105
100
102
81
91
76
92
98
99
92
97
75
104
75
107
97
90
103
85
83
104
93
92
71
82
74
109
94
89
74
105
91
75
80
91
96
84
85
89
106
105
99
106
85
86
76
72
75
75
71
85
89
98
108
82
91
84
103
102
97
93
98
76
73
93
94
80
88
96
82
99
107
104
72
93
107
98
107
75
72
103
102
105
109
91
105
89
92
75
93
77
75
90
75
81
88
109
87
93
105
81
91
105
79
81
105
105
76
84
104
76
74
93
92
88
102
77
87
96
101
71
76
73
93
98
70
81
79
77
100
88
76
85
87
108
94
82
95
72
80
99
99
76
80
79
104
99
108
71
93
72
83
88
76
83
78
108
106
91
70
99
83
100
88
86
80
107
102
93
98
103
79
97
92
99
107
76
108
105
87
80
106
81
80
78
84
98
70
88
81
80
102
81
108
71
93
75
100
79
81
104
90
96
90
101
90
88
106
101
78
83
96
98
95
74
91
97
109
87
85
94
105
96
78
109
73
106
91
92
100
95
79
109
79
75
88
88
95
76
77
80
103
88
103
100
84
76
85
81
103
90
84
70
99
106
70
73
80
76
75
80
72
100
78
107
80
72
74
88
89
70
100
94
87
81
106
94
73
86
84
78
82
74
90
105
95
70
87
92
107
70
108
73
96
102
80
105
102
86
79
78
72
71
72
71
101
102
91
104
77
105
106
81
78
96
72
93
101
70
88
78
96
103
87
78
107
84
108
97
73
85
71
90
94
79
96
76
91
86
89
90
74
84
103
88
90
83
76
107
93
71
97
94
72
80
83
71
74
103
107
90
73
78
106
109
90
109
84
91
87
74
77
92
94
72
97
84
71
108
96
83
78
100
91
94
106
88
88
93
85
86
84
84
86
81
105
85
107
97
77
93
74
73
101
86
82
85
90
94
101
98
108
70
73
99
76
85
88
80
78
102
100
74
79
79
95
93
83
107
82
85
90
99
76
108
107
72
78
90
98
93
84
94
87
106
94
84
87
107
80
80
70
91
95
90
84
107
85
107
96
104
95
102
83
108
109
74
71
99
73
103
79
88
76
71
104
73
101
88
105
97
83
87
79
84
102
71
100
72
80
98
105
91
90
103
105
87
92
76
88
109
93
70
75
89
84
87
106
74
102
87
100
85
81
86
97
106
88
72
94
79
96
99
109
91
98
101
99
70
75
106
94
103
88
84
86
79
78
75
106
100
72
80
71
104
106
76
101
83
102
94
107
102
85
101
76
106
97
91
73
72
80
99
81
82
99
108
94
97
72
101
74
89
84
84
90
90
77
106
98
105
88
73
105
102
86
89
95
71
85
71
76
77
76
71
74
76
86
84
77
89
107
109
90
96
75
74
102
108
84
71
104
90
102
88
74
80
93
103
92
97
71
81
98
108
103
87
96
71
81
84
82
70
70
82
80
81
82
75
98
84
93
84
104
104
95
100
86
74
80
70
94
106
87
82
86
87
72
75
99
98
91
109
94
88
99
101
102
84
108
78
78
108
73
89
97
82
101
100
83
70
96
70
98
73
76
90
77
101
97
74
83
84
109
87
104
71
104
86
107
97
72
100
75
98
104
101
99
95
70
97
83
90
77
73
82
70
88
104
73
95
88
101
97
71
96
105
80
99
94
76
96
72
93
92
88
80
105
105
71
97
91
106
102
72
78
92
77
105
105
101
105
107
86
92
93
74
73
83
94
76
109
103
75
105
84
104
85
84
86
84
84
87
108
96
74
70
101
74
108
107
72
97
109
74
83
102
77
85
75
87
99
91
109
72
94
92
93
93
99
96
85
71
90
73
105
75
81
78
96
97
85
106
109
82
94
100
94
99
107
96
93
90
70
102
102
103
105
81
72
93
105
83
95
81
89
87
81
106
82
95
88
81
74
79
87
75
75
74
81
84
94
83
78
79
103
86
71
99
91
81
84
80
71
93
76
99
98
89
109
102
78
81
101
91
75
74
96
106
93
74
106
81
103
70
103
108
95
100
73
77
100
74
99
101
109
86
108
108
84
95
85
78
100
84
86
71
86
84
102
88
106
101
74
89
108
97
104
89
77
102
84
101
100
101
99
85
92
102
70
77
80
89
89
107
84
96
109
108
93
83
82
100
84
108
97
85
103
109
81
103
105
78
104
74
76
91
77
72
107
85
108
86
76
72
89
108
70
85
80
75
72
81
84
70
83
86
71
85
88
80
82
102
92
74
93
76
83
82
97
101
83
99
100
86
91
106
85
82
107
99
80
91
101
84
76
104
93
82
91
87
78
107
106
77
109
100
74
92
89
108
70
84
91
72
103
70
82
88
92
108
82
98
77
93
86
94
105
104
76
82
79
102
89
79
82
93
100
99
81
90
95
104
102
103
99
108
92
109
83
75
95
107
100
107
71
72
99
86
93
78
95
77
73
96
105
98
83
93
98
71
72
101
76
101
103
99
91
88
77
100
85
73
102
95
79
84
85
101
90
100
94
83
103
83
74
94
79
102
74
70
78
71
96
102
88
93
98
82
100
82
96
82
80
76
105
79
85
78
104
76
77
71
109
95
75
92
73
95
106
105
90
103
80
93
80
84
91
103
103
76
109
92
86
72
84
91
79
84
102
74
97
84
75
89
90
105
91
87
104
108
106
85
90
105
96
88
74
80
86
75
102
97
86
92
87
78
106
93
82
85
88
78
78
85
101
81
92
81
87
87
93
92
103
105
105
92
79
88
108
97
72
97
78
72
96
100
107
75
106
108
88
75
93
92
71
105
106
95
109
81
96
73
106
96
98
92
104
87
108
94
87
88
82
105
89
97
74
98
98
95
106
71
106
109
85
75
78
85
106
107
99
78
77
94
93
103
75
80
95
83
72
96
75
101
83
91
109
101
84
88
75
76
76
78
104
108
94
82
73
76
101
86
95
75
71
70
87
74
96
76
94
79
97
95
80
87
83
95
75
108
95
101
71
87
103
81
74
72
106
75
105
108
76
78
105
86
100
81
87
97
91
96
76
108
74
91
102
87
90
102
91
109
73
105
87
83
92
88
87
72
88
93
102
77
94
100
73
95
103
80
103
83
83
100
91
89
88
85
100
92
105
94
84
73
85
83
80
102
74
75
72
109
89
88
80
88
75
88
78
87
109
81
101
88
72
96
97
79
93
83
107
103
71
88
104
87
104
93
85
104
81
82
93
86
76
84
79
101
100
83
105
70
80
70
90
90
99
101
103
70
80
95
76
79
108
93
93
104
92
70
101
82
89
77
102
76
89
97
98
75
72
107
75
107
103
101
70
94
99
105
85
85
89
71
92
109
89
107
92
76
80
102
79
108
75
108
107
102
80
103
107
75
95
98
89
95
82
96
89
87
89
85
82
100
89
77
94
97
101
100
77
90
101
78
92
93
94
72
76
109
106
102
72
108
74
86
102
89
81
93
106
91
91
105
96
101
102
71
81
106
72
86
87
106
81
108
92
102
106
87
88
104
70
102
106
103
88
81
105
90
93
86
82
90
76
70
85
93
75
87
92
104
83
99
100
109
102
105
71
102
72
91
104
80
109
79
96
75
73
74
73
81
94
98
98
77
81
74
98
87
77
84
104
101
85
82
74
99
108
93
100
102
87
90
84
77
109
90
76
105
86
72
71
103
74
81
80
92
91
71
87
96
86
70
109
86
70
75
98
99
82
81
77
93
87
86
108
70
81
85
84
105
70
77
99
76
83
83
84
86
75
83
100
91
109
109
91
86
102
94
84
86
72
91
80
100
97
109
95
108
70
106
81
82
73
88
77
87
88
104
88
76
81
88
80
102
91
105
81
99
70
98
88
91
102
85
78
99
84
81
79
70
94
87
91
109
79
81
85
89
106
72
74
85
107
109
76
89
103
90
96
109
85
105
101
99
85
93
79
89
80
81
90
77
103
70
82
97
81
80
90
97
96
107
84
98
83
74
81
102
105
104
97
93
76
83
84
102
76
77
90
70
78
101
97
104
84
101
77
79
94
101
109
96
74
73
100
82
104
102
76
74
97
99
74
83
74
78
78
99
107
108
89
92
85
100
84
80
82
102
70
86
103
72
94
93
104
82
82
102
83
99
104
96
80
107
83
94
71
75
81
91
90
73
106
88
101
96
75
93
83
96
91
79
75
106
93
81
75
94
88
94
91
72
76
109
93
105
78
94
75
74
77
109
90
70
86
101
86
72
109
94
87
99
93
105
90
89
74
107
90
94
85
81
96
77
95
84
80
107
89
109
87
75
76
98
74
74
101
73
97
100
91
108
92
79
92
93
92
78
100
100
93
80
80
96
82
99
74
107
98
82
86
104
106
87
100
105
107
77
78
108
101
85
93
70
100
83
88
91
74
74
101
84
101
86
74
90
98
88
77
106
98
79
91
74
100
84
103
99
108
71
91
103
91
97
107
101
78
105
88
74
91
107
91
98
73
78
83
96
103
77
96
82
88
72
72
81
94
100
75
103
85
96
82
98
105
89
101
72
75
73
93
99
87
91
71
95
105
106
98
81
98
74
107
75
77
71
95
77
71
109
88
94
78
88
100
108
97
77
107
96
89
105
79
77
103
96
96
90
70
80
89
78
81
104
101
84
80
91
71
87
103
73
88
104
80
71
89
93
99
86
108
108
98
90
70
97
74
92
88
92
87
82
86
103
86
77
87
70
89
99
71
87
87
95
97
84
74
78
81
103
77
98
89
101
78
100
74
94
80
94
101
101
100
95
106
83
97
90
106
80
105
81
88
108
70
70
77
107
109
91
100
96
73
107
106
99
108
80
90
77
82
101
97
99
70
103
93
74
96
88
83
91
79
76
98
79
76
88
74
84
103
95
97
104
79
79
95
101
92
92
80
70
78
83
74
73
75
74
95
93
101
94
77
70
75
84
109
79
98
92
73
104
74
83
97
80
109
88
79
92
102
105
106
88
79
103
80
109
94
104
104
92
80
99
71
90
77
81
88
101
95
98
105
86
78
85
100
103
93
85
76
87
99
96
97
76
90
73
77
96
92
105
71
87
95
105
72
79
78
75
109
105
107
74
108
79
89
79
106
87
71
85
100
79
74
103
77
105
81
81
95
81
103
85
101
108
100
95
105
108
101
106
106
82
86
76
96
107
93
71
75
109
105
106
72
83
91
80
85
88
75
79
104
73
86
92
90
70
86
101
98
90
107
78
80
88
89
104
86
89
74
71
94
99
77
75
104
108
94
98
106
96
105
99
102
71
81
102
86
91
70
83
99
96
79
72
102
84
83
102
102
97
78
86
76
105
98
80
76
106
76
101
101
98
81
78
73
108
73
99
97
91
107
73
83
87
73
94
102
86
92
70
72
109
107
100
77
102
89
81
83
108
77
72
84
101
109
70
99
80
77
76
90
79
93
87
100
102
97
89
79
101
109
73
100
82
104
97
73
107
88
94
86
83
103
85
96
90
109
92
99
106
94
103
75
95
76
109
76
70
104
98
96
82
101
109
73
75
94
108
80
96
90
71
101
78
92
83
72
105
80
97
96
82
106
70
106
82
89
107
108
79
85
87
82
84
109
84
80
86
108
71
81
100
108
76
96
102
83
98
86
105
78
83
91
73
99
71
88
89
107
89
108
96
72
82
101
100
75
108
89
75
74
106
78
95
80
70
103
90
93
74
80
75
87
84
100
87
89
76
84
100
75
87
83
105
82
81
80
106
73
71
84
83
96
91
93
83
101
107
98
99
104
91
71
102
108
74
83
75
98
83
80
89
95
102
83
84
98
102
77
77
95
75
97
86
87
75
87
101
91
100
80
80
78
78
83
83
91
87
103
70
80
78
90
99
89
108
98
94
104
96
90
70
99
74
103
83
102
74
83
104
91
90
98
90
95
89
100
97
87
82
106
96
90
100
107
104
105
99
105
82
92
87
104
108
79
75
103
90
94
88
75
89
108
91
96
81
74
101
89
73
77
74
74
72
89
77
91
81
109
81
88
85
79
98
71
104
106
93
98
85
101
86
93
75
94
97
82
92
87
99
83
91
87
89
80
70
108
73
74
85
95
96
103
98
73
83
95
73
85
90
101
90
109
74
75
100
106
75
95
108
86
89
90
70
108
86
100
107
91
88
104
93
95
78
85
71
88
73
87
104
71
81
75
89
102
102
99
108
71
104
89
96
88
97
86
83
77
89
109
103
78
90
76
96
75
85
91
100
86
84
105
92
96
82
91
75
102
88
93
76
101
82
94
105
84
105
79
81
81
90
101
105
86
79
87
87
109
84
98
107
74
76
99
102
72
93
108
71
95
106
91
100
109
80
79
102
106
91
93
97
96
89
82
90
82
71
73
97
76
83
71
97
76
82
78
86
88
74
87
78
104
107
75
91
101
82
100
88
83
102
95
74
74
94
109
81
91
98
74
79
73
74
77
88
101
76
74
91
79
106
108
104
98
98
103
74
80
72
77
95
93
97
86
77
104
73
94
95
79
88
106
89
99
81
107
96
108
99
102
94
70
107
83
108
76
97
109
80
83
74
81
98
91
78
82
90
73
99
108
76
72
106
96
70
74
96
104
105
74
104
108
78
91
70
83
91
102
79
78
78
80
80
97
74
106
84
99
88
102
74
105
95
102
70
94
94
102
87
109
98
109
73
90
84
72
76
70
108
89
84
105
92
94
82
109
94
92
83
89
79
77
72
91
104
88
94
106
107
80
78
106
107
79
79
81
103
93
83
106
96
99
96
72
105
109
88
109
71
96
99
99
88
104
99
75
105
86
88
93
75
79
101
79
85
104
91
89
88
96
100
72
71
103
75
97
101
78
74
89
84
95
76
98
75
103
100
105
95
104
86
94
70
108
85
84
104
78
84
97
70
107
80
104
96
106
77
93
73
96
89
97
78
71
86
87
87
88
100
109
77
86
102
87
93
85
100
80
83
107
81
99
107
86
94
82
83
102
86
84
109
84
91
92
100
99
89
71
85
85
74
103
105
89
106
94
79
76
75
76
79
78
100
77
100
79
85
101
89
106
95
78
104
72
106
83
79
72
86
85
85
77
109
86
99
97
73
84
109
105
99
97
83
96
84
72
75
96
79
74
82
86
86
74
83
94
84
86
71
96
99
80
94
73
103
99
92
92
83
97
95
82
82
84
80
104
97
108
88
81
83
105
93
91
92
90
78
102
91
101
75
98
105
71
88
104
87
78
83
84
80
85
84
105
90
96
77
86
107
89
98
72
97
98
83
96
98
92
72
102
93
87
84
86
97
75
100
74
85
95
74
88
104
88
101
94
106
100
99
99
74
86
90
95
89
77
100
77
94
73
73
80
108
102
105
77
97
108
106
88
105
109
78
81
83
105
81
71
97
87
82
101
86
85
72
93
91
89
103
83
90
97
98
107
79
96
91
94
91
106
105
104
107
90
90
77
89
73
73
78
81
106
97
87
87
92
75
75
79
88
76
105
76
75
83
80
102
102
105
97
94
108
74
109
75
76
107
95
82
88
101
98
89
85
89
70
101
108
107
103
93
80
76
79
78
89
107
102
72
104
100
79
73
108
100
92
89
92
92
84
102
78
84
76
89
80
105
100
80
109
89
107
85
98
71
70
71
97
107
93
71
78
76
102
78
96
104
103
85
106
75
78
77
91
94
99
105
98
82
104
72
70
85
87
87
94
92
93
87
108
82
78
90
103
72
105
100
89
86
93
80
102
104
76
72
94
108
71
89
77
83
90
70
97
102
90
76
107
92
76
102
106
73
79
73
76
89
77
99
95
85
94
80
87
76
78
101
96
86
72
81
95
101
83
104
76
93
92
74
91
86
99
108
99
72
74
101
77
94
92
83
81
93
75
86
78
79
93
78
74
91
103
73
89
72
82
72
104
98
101
90
108
91
107
81
70
86
87
100
82
104
85
84
81
103
91
99
84
88
88
81
89
84
99
89
91
83
79
108
85
92
94
77
87
90
75
101
108
83
109
95
83
86
73
70
77
75
86
109
78
88
71
88
88
104
109
106
84
70
99
102
107
75
102
81
108
84
76
96
78
72
84
70
104
97
71
89
94
96
93
94
103
102
83
97
102
80
99
98
94
98
109
93
97
72
85
88
74
97
77
98
97
77
84
82
88
88
79
93
108
79
71
77
94
75
107
86
90
84
87
106
95
71
101
88
104
91
108
97
107
80
78
99
104
73
70
73
84
76
89
83
103
88
108
105
82
86
71
102
93
99
97
99
80
93
108
73
80
83
97
107
77
90
71
92
98
77
89
77
92
101
94
81
94
90
101
108
92
80
79
73
71
93
103
99
97
74
96
103
81
73
79
96
89
70
105
75
94
80
85
108
72
106
93
80
107
109
89
85
108
105
100
95
104
100
75
76
90
97
84
90
91
84
83
71
103
85
83
73
101
83
91
72
95
100
86
73
108
74
96
100
106
80
86
96
103
85
101
101
74
72
93
74
78
77
71
80
103
70
101
95
79
102
98
80
91
106
98
98
74
105
82
73
78
102
83
76
70
83
99
85
106
87
109
71
81
83
90
99
72
98
80
83
76
104
74
107
82
101
72
85
108
97
72
92
79
82
93
83
107
75
71
70
75
72
99
105
101
71
85
88
76
81
99
87
92
90
75
99
109
100
88
96
92
99
89
93
86
93
99
93
95
104
88
71
91
72
72
104
106
73
103
95
73
98
86
82
86
107
86
103
84
96
99
93
72
94
70
92
83
94
109
90
98
80
87
72
106
105
82
84
88
72
88
72
104
70
106
91
107
76
99
71
71
81
88
91
82
83
109
81
70
86
108
98
76
99
75
73
106
99
75
70
94
101
96
100
80
76
70
92
99
108
104
91
109
70
71
82
104
74
89
101
79
92
71
78
84
99
100
82
81
86
99
76
78
71
80
97
83
76
90
84
78
76
87
107
103
88
80
98
82
74
103
94
77
89
71
84
83
77
82
91
104
89
96
104
86
79
87
96
95
104
86
75
108
99
103
71
85
78
108
75
90
91
105
93
74
77
74
70
89
107
86
100
79
92
100
88
103
108
85
90
78
70
91
89
109
74
88
71
71
73
90
85
71
71
86
99
76
95
74
106
86
93
79
78
70
96
79
86
81
103
83
109
102
94
80
94
72
73
91
84
101
104
75
96
88
99
78
102
108
104
70
98
106
91
85
103
109
93
103
104
100
96
88
83
103
97
78
98
78
79
71
76
103
92
94
108
78
90
74
88
89
103
71
109
85
92
89
96
91
82
102
72
71
70
76
98
83
87
92
77
71
101
85
88
76
84
91
81
73
97
81
104
109
109
92
106
86
72
90
74
82
72
76
93
107
89
104
100
104
79
98
88
83
82
75
105
101
81
74
95
80
83
91
93
94
81
109
99
86
72
89
99
96
102
79
102
73
91
107
96
72
74
104
89
97
79
107
77
98
99
100
95
93
70
96
97
78
84
83
87
109
76
76
93
85
77
105
85
70
97
101
102
89
103
71
81
107
83
101
70
75
97
104
95
78
106
81
75
83
94
101
70
83
99
101
86
99
76
105
105
109
70
86
94
100
95
102
89
103
87
71
91
95
108
102
81
100
104
85
91
101
102
83
72
71
78
91
104
73
92
80
90
109
104
95
88
88
89
93
71
102
83
75
75
88
107
79
91
79
80
101
105
94
85
93
109
83
92
103
106
70
101
77
80
101
87
95
108
71
94
85
109
95
70
96
96
108
71
90
95
79
105
80
93
100
74
76
93
101
78
96
75
99
86
88
83
78
100
71
74
103
94
109
106
108
81
87
73
100
79
95
83
76
92
102
103
81
70
71
96
86
75
70
77
96
88
89
83
96
103
86
98
97
88
77
109
108
91
95
70
72
84
95
81
77
88
103
103
75
104
87
86
102
84
74
95
77
90
89
81
91
71
100
76
93
100
101
72
86
77
96
87
72
70
105
88
83
70
92
101
75
97
98
104
100
105
75
89
81
101
87
75
95
92
105
96
75
83
78
74
91
70
98
76
107
92
109
72
86
102
108
82
72
105
82
100
74
97
97
107
86
72
99
106
75
104
78
78
91
101
72
99
83
103
102
109
74
102
83
72
70
103
104
92
76
87
79
91
86
109
76
101
98
92
78
79
88
80
90
95
84
98
89
91
93
71
107
98
93
70
84
74
91
89
94
92
93
107
71
102
73
76
109
71
86
97
87
88
70
87
85
105
103
80
107
98
75
79
74
83
100
89
71
101
108
70
72
83
100
86
92
99
75
95
107
74
90
86
86
79
85
83
96
78
76
74
109
96
107
79
106
88
87
90
93
74
98
75
86
87
73
104
70
100
108
109
78
92
77
83
100
90
93
76
106
84
83
94
80
85
94
94
99
82
70
95
109
95
93
107
70
90
76
88
107
96
83
95
95
102
97
73
88
91
109
83
75
85
108
100
82
105
84
85
93
95
88
88
103
101
93
99
74
74
76
71
85
70
82
84
77
97
108
80
98
81
71
88
76
88
70
94
93
92
93
91
89
89
102
86
107
108
106
94
105
89
75
93
84
104
103
101
73
91
103
79
107
84
105
98
100
100
99
105
89
87
73
73
102
86
72
89
74
84
84
106
92
102
79
105
78
93
75
74
97
102
90
71
98
84
92
82
107
91
105
104
101
96
87
86
100
96
70
88
91
70
106
79
82
105
89
99
93
93
102
106
95
96
109
96
71
104
87
79
82
76
72
72
73
104
96
83
92
109
103
76
70
96
93
103
99
98
73
84
72
72
71
94
90
75
71
105
98
74
92
74
71
87
98
76
77
96
76
104
93
87
85
100
84
84
109
95
104
97
70
108
104
70
80
109
99
70
97
98
84
73
73
83
109
76
86
98
98
86
91
100
87
77
94
73
108
72
74
81
71
94
74
106
107
79
103
96
81
73
92
92
76
70
103
73
73
75
107
98
94
100
76
71
74
95
75
98
102
102
99
93
75
97
99
79
76
91
77
95
92
107
102
87
75
87
86
84
93
100
74
109
84
81
105
107
87
76
108
96
107
85
106
83
89
74
74
98
88
98
82
97
101
70
71
106
71
77
86
93
96
95
99
91
89
101
80
93
77
102
105
91
106
109
109
97
91
97
71
100
81
101
101
70
82
81
105
78
75
104
103
108
106
93
78
91
95
79
90
96
85
92
89
98
99
101
109
98
72
102
97
109
94
82
88
87
86
84
90
75
100
97
104
104
84
108
106
70
101
73
71
106
78
70
93
93
94
79
82
92
96
106
82
76
87
82
105
92
94
87
75
72
100
102
74
106
109
93
105
91
108
82
95
91
80
101
101
86
76
74
107
88
76
91
80
81
93
102
105
84
92
75
100
109
82
81
93
89
70
73
97
75
99
98
81
100
75
87
73
82
100
94
82
109
75
107
108
102
103
84
104
88
95
78
109
91
78
72
81
78
101
78
83
86
90
73
87
85
96
77
97
92
103
91
109
83
101
104
86
80
101
102
94
79
79
105
86
90
73
101
70
73
76
78
95
107
81
103
95
77
78
79
85
74
108
97
85
84
83
100
70
90
104
99
90
82
85
101
86
73
105
70
83
105
75
87
109
82
105
93
106
77
101
78
100
100
107
73
90
86
92
77
108
97
87
74
78
81
96
96
103
89
73
77
74
95
88
75
76
92
105
81
95
108
78
96
79
99
100
89
84
89
104
85
79
80
74
85
72
75
96
75
103
97
102
97
81
74
109
73
109
73
82
84
72
75
72
95
86
95
104
106
98
78
88
91
72
93
97
91
97
88
78
79
86
74
98
90
81
99
97
73
96
80
82
95
75
81
91
105
105
79
102
93
102
109
91
87
87
104
77
84
81
98
97
91
94
107
92
96
73
97
109
98
77
98
83
104
89
79
96
88
103
84
70
104
86
77
81
73
100
75
109
96
87
78
73
94
102
109
101
99
107
85
88
102
108
71
109
96
106
109
70
75
98
85
89
109
83
94
82
73
94
107
90
103
93
103
71
98
101
88
84
99
101
102
90
84
84
109
78
88
94
82
77
89
72
107
94
74
84
106
95
71
79
98
83
89
105
82
90
86
100
83
73
96
105
77
91
92
71
71
104
95
85
78
78
92
74
101
85
73
99
102
79
75
93
96
96
94
92
82
82
74
99
79
76
74
77
90
76
95
83
91
83
76
94
106
104
107
80
92
103
97
94
85
91
85
89
101
81
78
86
109
96
86
90
107
78
73
97
108
76
83
97
82
109
89
83
94
99
94
90
88
83
81
78
93
98
85
107
103
103
98
102
75
98
98
72
88
102
70
87
108
108
73
89
91
72
109
82
98
71
85
95
80
81
91
107
86
92
83
99
73
105
80
102
78
99
94
95
101
100
79
93
97
90
105
106
79
99
88
91
92
109
72
80
76
98
102
93
73
73
96
96
97
71
105
76
75
72
90
85
75
81
93
93
100
96
108
102
109
103
90
104
87
76
79
109
78
108
106
108
78
90
82
99
80
90
102
73
84
107
102
99
97
92
97
101
92
70
88
107
94
83
91
88
89
101
90
70
91
106
71
95
92
70
107
93
109
89
85
93
73
91
90
89
105
85
105
93
82
90
87
98
73
103
91
106
107
86
74
75
70
89
101
72
76
85
105
76
81
84
104
104
74
88
94
78
104
77
87
79
78
86
71
91
103
83
106
103
108
90
101
100
93
99
108
109
77
80
78
96
107
100
78
105
94
91
107
92
88
83
90
74
87
74
106
77
96
104
88
95
108
70
76
96
80
71
108
95
96
94
96
83
100
96
70
74
101
99
79
97
105
95
97
93
101
76
94
90
99
85
101
90
85
76
88
72
80
101
78
101
108
103
81
91
83
80
82
105
72
72
100
94
82
98
78
97
81
86
93
104
97
106
90
87
109
107
103
108
93
70
104
97
74
91
88
73
89
93
81
87
87
107
72
91
76
75
72
102
83
79
86
72
105
88
77
72
84
107
91
84
70
89
107
81
74
107
109
77
86
94
83
99
97
107
77
80
87
106
79
108
106
88
97
98
100
94
103
75
75
101
107
79
92
86
80
78
75
79
104
103
73
99
104
103
79
72
81
92
74
103
99
82
79
104
102
102
105
101
105
73
73
95
78
79
70
94
93
88
101
93
89
79
106
76
104
81
104
75
78
88
77
91
100
73
82
79
93
99
73
107
82
106
95
84
94
82
93
72
84
71
106
71
88
76
99
106
75
75
77
91
91
109
73
109
82
74
106
78
94
83
76
82
97
93
77
97
98
97
96
84
76
91
79
92
77
103
73
100
81
107
77
104
104
97
94
94
77
99
87
83
81
84
73
105
104
76
90
104
90
100
80
107
76
107
95
92
104
104
95
99
82
97
89
91
101
92
91
101
70
100
99
96
78
71
104
89
78
101
79
104
86
83
77
92
78
96
88
72
89
95
91
85
79
71
89
98
82
80
73
74
83
87
83
101
85
107
83
81
74
73
75
98
70
85
86
87
97
106
82
95
104
84
101
84
86
108
108
88
95
99
72
85
85
82
97
105
71
74
71
105
94
96
87
101
74
91
107
101
109
105
94
82
102
86
70
72
72
103
91
74
100
78
94
71
93
95
109
100
106
82
71
106
73
98
107
73
90
85
86
108
98
93
100
103
105
79
70
103
70
81
77
74
81
105
70
71
105
76
79
94
103
85
97
82
75
94
94
102
86
99
76
95
96
85
75
72
82
109
92
107
70
74
83
87
102
76
94
109
75
98
102
104
87
105
93
108
84
101
104
101
78
77
96
99
103
74
100
77
98
73
105
100
106
98
92
73
75
95
95
106
105
80
90
89
105
70
76
77
100
95
107
101
83
75
88
82
95
108
102
92
104
91
108
96
73
96
97
81
73
73
104
85
109
88
76
73
100
70
78
103
84
84
108
86
75
84
108
107
96
107
90
87
99
90
78
73
98
101
105
86
78
100
98
70
102
72
108
73
106
96
82
81
90
76
70
81
72
89
101
70
74
79
103
102
85
79
94
103
79
82
85
80
76
78
108
109
84
105
97
87
90
99
96
99
87
87
70
77
80
98
99
84
94
87
94
87
77
75
101
80
95
101
101
96
81
79
79
107
70
99
100
78
75
96
98
86
108
76
71
98
101
103
101
100
90
109
103
92
91
100
75
102
90
86
80
93
95
73
98
96
94
70
108
99
95
71
102
89
103
100
103
97
85
71
92
94
80
79
81
92
70
82
79
88
96
103
95
87
85
75
78
90
107
89
82
80
85
95
108
100
98
71
70
73
106
108
87
83
78
86
76
80
88
79
106
71
105
78
81
103
82
100
99
91
93
70
85
108
101
98
85
72
107
85
93
98
99
92
71
98
70
74
106
79
80
105
99
105
77
84
79
92
104
93
88
74
76
99
94
80
71
102
88
84
108
94
108
93
80
96
83
83
70
90
104
97
71
98
91
81
76
106
73
86
78
94
70
79
105
89
101
107
107
84
95
72
107
73
98
89
104
88
100
87
104
72
73
102
91
96
81
108
94
93
70
101
76
87
108
107
106
88
81
101
98
100
79
93
106
87
88
102
85
108
82
85
107
98
83
71
109
76
78
100
92
88
102
74
82
71
91
109
72
95
83
94
90
94
74
98
96
104
85
84
70
99
84
93
103
73
70
75
85
93
89
104
100
105
98
100
96
96
98
78
92
72
82
79
92
74
96
79
101
84
106
92
83
70
82
104
92
101
75
74
84
85
107
80
103
106
106
100
78
104
98
100
108
89
103
71
96
87
104
92
105
99
95
93
109
93
70
77
98
93
82
109
80
98
84
101
78
105
101
81
84
88
90
97
97
107
73
94
87
70
91
98
92
100
75
88
82
72
77
84
105
75
82
83
106
109
99
70
79
87
92
91
82
104
100
77
84
70
89
109
95
79
89
96
94
97
102
99
107
87
98
93
105
109
76
84
75
86
73
107
108
75
70
74
73
71
93
78
108
105
71
83
98
74
73
71
79
104
73
72
88
98
99
97
90
100
71
81
89
77
93
101
84
103
84
95
79
71
95
86
88
78
74
72
103
71
83
70
87
82
76
71
90
72
96
103
76
96
108
105
94
81
72
107
86
97
94
105
93
102
90
92
74
99
82
109
109
109
89
93
70
95
94
102
79
82
90
79
79
97
90
84
81
92
82
101
92
82
83
88
92
101
101
89
89
105
73
105
94
78
104
84
85
70
72
103
105
96
105
106
108
102
90
83
74
76
90
83
93
74
99
85
98
84
81
76
77
72
76
100
105
96
106
108
74
88
106
90
94
74
92
87
73
72
100
85
104
106
72
102
97
105
80
87
105
75
78
77
102
80
70
102
102
92
71
84
87
78
83
85
104
87
92
95
103
80
95
82
85
86
93
77
72
95
87
78
88
89
75
109
84
96
109
96
93
73
79
100
90
86
99
90
102
97
104
72
95
107
108
90
88
71
73
73
106
99
75
75
70
95
80
82
71
82
89
105
70
73
105
85
77
80
91
81
95
102
89
84
72
100
82
78
81
95
99
81
103
94
98
77
85
86
94
87
71
84
99
98
105
82
101
102
86
94
83
96
109
87
94
90
97
98
90
101
88
76
108
85
103
96
84
108
108
84
101
81
108
71
107
74
86
77
76
103
103
94
90
89
103
84
104
91
100
108
91
72
78
87
75
109
74
73
98
80
91
97
108
90
94
99
80
89
77
82
94
89
103
90
81
91
93
101
79
102
80
83
78
78
73
96
105
74
97
73
76
98
106
103
92
97
85
79
98
87
86
89
90
74
102
104
71
103
103
105
98
91
109
87
106
79
98
78
102
83
82
103
89
97
89
100
108
94
98
109
83
101
73
105
73
101
107
105
101
99
93
97
81
107
106
96
96
91
81
91
97
96
78
93
81
86
104
73
77
90
91
107
104
90
71
76
82
87
80
76
98
82
71
109
70
85
89
78
88
75
95
109
82
74
86
89
86
88
79
86
95
100
82
74
84
70
70
72
102
106
100
75
104
97
77
77
94
97
81
80
81
86
98
101
98
96
104
100
93
103
71
91
73
100
101
82
85
90
96
86
77
85
103
76
76
90
104
73
108
103
98
104
84
100
92
107
97
74
102
77
73
83
94
72
100
83
86
90
99
109
83
70
94
105
90
88
88
76
94
81
70
96
101
108
72
86
91
71
87
97
71
70
104
77
85
84
87
80
76
84
71
79
89
80
105
76
99
87
92
95
72
76
100
99
88
93
78
99
105
105
82
100
106
85
74
108
93
73
83
75
70
86
97
81
73
75
103
105
75
73
79
92
79
91
87
89
92
74
93
99
85
72
93
75
81
75
104
88
108
109
95
109
94
105
88
98
106
80
80
85
90
101
74
106
97
102
79
104
97
109
102
79
103
85
86
79
91
72
74
74
92
72
92
100
99
109
93
106
70
71
75
74
105
109
100
97
72
77
83
90
96
84
81
85
78
104
85
87
72
92
95
89
107
84
89
75
93
98
71
98
108
80
97
79
78
87
102
106
83
87
92
71
95
80
93
88
84
105
75
107
72
71
88
93
99
104
103
79
108
96
87
104
84
83
89
100
99
84
80
76
81
102
105
93
72
89
75
85
72
80
88
75
107
96
108
71
83
107
86
82
80
86
77
71
86
103
84
106
86
76
73
71
92
104
91
70
89
95
106
102
90
108
99
104
105
72
76
102
106
86
101
107
73
85
104
92
74
78
74
96
73
94
82
84
75
94
97
74
76
105
91
98
90
70
77
73
82
79
95
98
82
73
93
99
95
85
96
105
104
102
90
86
82
108
74
81
102
96
92
71
104
105
109
90
105
86
101
95
78
101
86
99
98
92
93
96
82
102
102
109
80
80
109
76
99
100
90
73
109
86
100
103
76
85
81
92
101
108
76
80
94
98
89
98
98
78
70
108
107
71
98
72
107
100
106
83
83
95
73
89
80
95
88
81
82
102
94
98
71
96
106
78
72
85
79
70
74
105
103
71
88
98
99
83
103
97
82
91
106
109
80
107
103
108
96
102
97
84
109
100
95
73
78
89
86
103
89
96
106
107
73
87
91
77
82
85
101
89
92
98
72
78
78
86
98
85
94
109
81
86
102
72
94
81
73
103
70
89
102
95
106
101
107
70
98
97
70
71
94
82
105
90
101
89
108
82
73
74
87
86
82
94
80
96
106
70
74
74
74
104
79
75
99
87
70
100
79
102
96
71
72
93
80
98
89
87
106
72
84
83
94
97
84
90
76
84
85
105
105
74
104
95
107
108
99
104
82
103
88
100
96
95
77
82
90
90
84
89
71
71
92
72
97
87
79
107
97
106
93
97
72
101
82
101
99
91
91
74
94
105
95
106
85
87
83
72
103
91
78
93
108
80
103
80
72
87
84
105
104
84
108
80
77
109
78
73
70
103
108
91
91
98
83
81
80
109
100
89
94
100
96
75
72
97
102
84
84
106
105
84
81
74
89
108
72
105
78
92
70
80
76
108
96
104
91
89
104
107
87
75
80
102
88
85
108
92
90
108
93
70
79
91
98
74
99
94
90
90
105
78
104
71
101
85
102
101
97
82
102
96
76
71
108
71
71
89
87
97
106
72
74
77
87
80
78
94
84
94
99
71
95
71
86
99
101
94
101
96
76
84
105
77
82
109
83
97
94
96
74
86
101
103
84
79
79
81
107
109
91
100
106
96
96
79
104
76
86
70
100
82
92
95
106
81
99
85
108
100
83
106
93
101
77
75
74
74
81
87
90
104
88
88
103
94
108
109
85
91
79
71
91
74
105
106
96
84
94
70
104
102
80
87
87
109
81
98
85
104
83
106
98
78
75
73
108
103
83
90
70
71
88
95
91
88
107
94
84
94
107
74
87
105
107
87
73
87
96
93
100
105
95
81
92
95
84
88
94
77
101
94
75
80
72
103
108
84
107
107
70
80
75
79
104
85
78
97
74
98
84
84
72
99
83
85
103
75
99
93
80
72
91
73
83
94
105
78
109
87
71
81
109
81
92
94
75
104
96
86
90
86
92
103
73
80
97
103
84
83
73
80
88
79
75
91
70
74
106
94
79
72
104
80
82
98
87
70
74
100
89
87
99
108
80
109
70
95
96
93
83
102
92
89
70
106
70
107
109
75
91
101
73
87
78
87
100
73
100
81
74
80
104
105
107
82
72
79
95
105
72
71
75
100
85
103
83
89
77
98
96
98
76
92
84
85
98
71
84
88
92
85
94
93
71
79
74
107
101
93
94
93
73
71
100
102
101
92
87
77
86
88
70
94
78
91
104
89
98
96
105
87
85
108
100
106
93
72
81
92
101
95
96
83
99
84
71
75
90
102
81
77
99
109
104
95
103
74
76
75
104
82
76
108
105
100
108
95
82
91
96
79
73
101
96
75
70
77
100
84
78
78
98
105
98
105
85
101
96
81
73
76
82
101
101
73
94
93
71
76
103
105
102
107
81
103
92
102
74
83
74
71
103
92
105
106
101
92
86
73
98
87
70
83
74
104
99
94
102
73
85
74
98
106
92
104
102
76
92
75
71
86
82
102
87
71
79
79
83
93
91
82
99
70
99
80
71
85
102
97
87
103
109
104
100
70
105
71
78
85
89
91
94
101
92
72
93
80
99
72
83
93
91
104
76
100
98
108
81
106
79
92
83
102
87
103
85
84
70
95
83
82
107
92
85
106
79
70
80
104
70
93
79
100
79
100
78
106
105
78
104
80
78
70
97
79
101
93
94
86
74
80
83
107
73
80
77
83
91
103
90
77
88
79
86
98
94
77
80
79
72
102
99
86
90
96
105
106
76
84
109
98
78
91
80
103
76
79
71
81
89
107
74
71
96
77
104
70
96
83
81
109
80
76
92
86
76
89
91
78
95
108
76
73
106
87
89
96
75
87
89
84
81
99
96
104
79
72
77
90
103
103
107
90
89
105
83
78
108
105
103
101
92
107
105
75
93
76
101
92
79
98
85
100
106
85
100
78
76
79
85
76
73
80
77
71
74
76
78
79
105
81
77
77
99
99
70
79
95
106
78
108
79
104
98
97
109
91
102
83
72
106
72
101
102
102
87
84
107
86
94
81
75
71
77
95
77
75
106
79
106
90
91
72
76
71
71
98
89
101
102
109
98
73
79
109
87
89
73
81
70
93
91
92
100
85
79
99
74
76
100
89
107
92
84
88
102
89
70
104
87
90
109
85
99
85
96
92
92
106
98
85
105
100
85
104
89
75
91
97
73
77
78
78
109
86
105
107
76
109
78
83
79
82
105
106
98
101
84
81
92
96
101
106
108
96
93
84
76
104
106
105
107
86
103
86
78
98
90
74
70
108
103
91
88
85
99
102
80
105
92
109
95
92
103
102
80
91
73
97
93
108
98
106
79
88
87
104
86
95
79
109
70
85
105
88
98
92
92
95
93
106
70
104
71
93
81
90
76
84
83
71
76
79
77
101
70
98
78
94
70
85
80
100
81
96
92
73
86
86
74
86
104
103
108
74
81
83
107
70
89
75
97
70
104
98
81
106
80
92
84
86
102
77
78
95
106
109
88
103
76
91
95
99
74
88
92
99
96
102
109
89
79
73
93
94
81
84
80
81
108
102
73
105
101
94
95
94
103
109
77
91
75
92
81
78
90
70
96
98
106
79
72
109
93
100
101
86
80
101
88
90
82
97
77
79
84
105
76
96
72
103
83
82
84
96
90
102
105
104
79
81
95
85
74
96
76
103
83
88
93
94
99
84
91
84
89
104
106
92
70
70
102
76
82
71
79
71
105
101
70
94
104
78
96
88
77
83
107
79
70
82
95
93
88
73
71
79
91
100
72
81
91
96
81
82
75
73
75
74
77
81
106
73
77
98
109
105
71
78
83
70
86
101
87
109
78
71
109
107
92
82
93
88
85
86
104
107
108
103
88
88
96
83
85
88
85
85
85
71
98
105
84
91
107
88
76
107
95
103
86
95
77
91
82
95
99
87
108
103
95
90
87
81
105
107
102
99
96
94
105
106
76
99
109
95
101
109
79
105
74
104
90
75
84
103
102
72
76
85
108
92
98
106
80
85
96
80
70
98
78
95
96
91
79
86
78
97
84
106
71
94
79
76
80
80
75
102
91
90
74
78
97
92
103
103
82
77
101
108
84
102
103
102
83
72
106
104
88
73
80
72
109
75
102
89
80
109
80
72
102
94
84
107
98
71
92
80
86
88
104
101
81
78
83
100
97
84
85
106
99
95
97
95
105
87
79
104
91
82
85
84
81
75
90
76
72
99
107
103
91
95
105
92
76
107
83
73
91
92
80
75
94
84
79
87
74
74
75
81
73
88
105
99
76
89
84
105
75
82
75
82
98
104
80
81
94
75
109
100
73
74
99
93
82
79
75
96
73
92
88
92
105
86
84
109
95
96
74
97
98
75
108
82
107
85
78
108
87
104
98
87
82
101
70
70
86
104
107
73
109
102
79
89
84
100
102
90
72
89
108
77
109
103
78
103
93
94
81
108
70
90
99
96
95
70
97
103
99
96
104
107
87
95
89
71
97
107
78
106
74
99
82
85
102
85
97
80
96
82
82
106
83
79
102
88
71
91
108
104
97
86
99
95
102
95
76
71
73
73
94
76
75
95
108
97
74
85
101
71
102
105
82
94
79
73
101
103
83
71
71
105
87
82
98
90
107
71
81
105
75
72
102
106
83
100
98
105
92
96
98
82
76
107
103
96
106
104
86
109
98
87
106
90
94
93
87
71
102
94
97
101
88
80
76
82
108
82
109
93
74
108
96
82
101
89
99
72
83
74
75
73
109
109
86
74
85
102
81
84
102
76
91
75
96
88
73
101
75
97
99
76
108
83
87
87
70
73
85
70
107
97
75
101
92
80
105
83
100
85
71
99
83
106
70
98
90
72
101
82
99
90
101
79
75
101
79
89
98
94
108
105
90
92
93
95
86
104
77
99
77
91
91
90
79
79
108
75
103
80
88
99
73
84
92
78
103
89
89
103
87
109
98
90
71
84
99
72
83
102
80
99
94
79
76
98
95
91
76
70
94
105
75
86
80
79
71
105
95
71
99
99
93
80
94
81
98
80
84
80
84
73
100
106
87
105
106
99
102
102
86
107
96
106
84
85
86
92
77
87
99
71
86
99
109
102
80
70
108
88
72
102
89
105
88
90
89
105
77
92
74
73
74
82
92
91
109
70
99
98
88
82
93
90
99
80
95
88
96
105
101
85
87
76
105
103
83
73
108
88
109
78
107
83
88
99
107
101
76
105
72
73
87
104
75
87
97
89
106
109
102
97
92
109
105
96
101
105
103
104
95
77
98
74
98
77
104
101
93
87
99
96
101
105
97
90
101
86
79
104
79
77
98
95
90
106
94
83
93
106
99
79
82
89
92
70
79
86
74
105
97
81
81
105
89
75
80
96
92
103
71
99
93
96
108
83
94
84
95
101
96
103
87
94
103
91
100
106
81
86
86
79
104
84
109
78
101
70
83
82
80
99
96
76
109
95
108
77
89
106
106
109
94
90
75
108
83
91
80
104
80
101
108
95
97
103
105
101
104
75
106
71
104
106
97
89
95
73
91
93
99
108
88
93
104
82
71
107
89
105
73
70
86
100
101
104
92
74
92
87
75
81
93
96
84
106
84
106
98
95
79
90
83
82
90
75
86
80
107
89
95
102
104
70
88
98
71
100
99
101
86
75
78
80
109
101
77
93
88
89
78
95
97
102
97
101
94
80
103
82
87
95
101
97
107
102
105
87
107
81
100
105
71
99
96
88
88
86
83
82
85
84
109
91
90
87
79
76
78
100
84
98
91
109
92
82
108
78
87
108
98
72
95
85
87
77
105
74
95
91
86
90
99
101
76
91
96
102
82
79
80
71
84
72
88
82
84
106
105
88
98
88
74
105
93
98
102
106
82
109
74
92
101
99
83
90
78
109
93
98
101
79
102
104
96
75
92
96
92
104
108
99
99
83
109
83
94
87
108
82
75
97
90
80
104
103
83
108
81
83
96
109
77
99
103
89
104
99
72
77
93
108
76
78
82
78
74
80
105
108
98
101
107
95
109
96
96
94
84
98
93
76
80
85
93
107
98
96
99
80
109
106
94
78
73
90
102
72
88
70
71
97
94
74
83
102
109
108
93
103
86
78
83
105
95
75
91
71
81
94
74
107
105
103
104
103
82
79
104
97
73
94
87
95
73
107
99
102
80
76
86
98
98
102
82
81
84
71
71
104
91
106
108
83
94
108
99
103
89
77
79
98
84
72
82
109
84
70
82
80
96
71
83
103
102
107
100
108
103
97
83
109
72
102
81
80
107
72
102
108
101
107
108
81
97
92
95
99
101
100
88
83
108
87
78
87
100
77
86
75
80
89
92
87
96
72
83
106
103
77
89
72
78
75
87
81
104
105
103
90
78
77
94
103
99
90
85
89
106
92
98
84
79
78
108
85
83
90
88
90
100
73
93
82
108
83
87
103
89
89
74
89
77
88
84
93
79
97
104
77
98
96
72
106
76
105
107
79
97
106
104
88
97
93
98
82
96
76
76
101
108
98
71
104
100
79
73
100
103
84
104
91
83
88
104
98
79
82
105
101
83
73
108
82
86
96
103
81
80
109
103
98
105
109
94
80
82
72
70
84
99
99
108
100
108
93
80
102
88
105
85
96
103
94
84
90
75
100
101
86
101
88
104
70
89
97
72
71
71
100
90
85
83
109
94
96
95
103
91
77
104
94
71
71
78
83
95
95
96
103
107
98
72
108
78
106
90
80
93
96
83
107
102
80
71
91
83
101
99
102
95
87
101
81
88
90
105
70
85
82
77
98
106
75
71
96
106
109
77
72
93
72
70
109
90
108
71
78
109
109
80
90
109
109
80
105
104
106
86
80
96
73
90
101
82
83
99
85
75
104
75
75
70
89
72
89
77
98
107
99
76
103
94
106
100
70
82
103
102
102
71
89
109
94
72
72
74
90
77
75
74
97
98
71
99
90
81
72
103
72
100
101
96
76
101
71
100
90
81
83
83
86
106
89
103
73
93
99
82
94
108
89
95
82
92
100
74
76
73
75
97
81
72
91
95
74
85
89
87
98
87
93
102
91
73
103
108
105
106
93
100
89
95
89
97
98
103
100
107
85
104
71
83
98
88
76
76
76
71
96
75
77
99
100
80
108
83
108
108
70
96
72
93
98
96
105
81
106
109
102
96
87
70
103
108
109
77
97
77
95
97
108
72
91
92
73
104
97
71
81
88
88
93
106
72
74
86
74
86
81
85
89
94
98
92
74
85
97
85
106
75
93
108
77
103
109
108
93
79
83
87
84
80
72
99
92
83
104
105
76
73
87
87
86
88
109
80
87
78
102
106
79
77
101
97
82
88
90
82
94
93
81
106
93
99
101
88
77
102
84
73
103
97
77
83
77
75
72
83
87
70
101
107
72
107
87
102
76
106
82
102
100
105
91
96
94
90
71
86
87
74
103
94
82
87
90
104
94
106
75
102
74
109
108
71
100
103
76
101
107
85
93
96
89
91
89
105
85
76
86
76
104
103
95
80
95
106
86
72
96
107
95
95
96
100
70
96
100
87
83
92
71
107
92
104
91
85
108
77
92
90
99
97
89
84
87
87
108
91
97
91
76
86
74
72
105
91
96
77
88
91
108
109
87
73
94
78
108
76
75
92
73
75
102
79
106
97
100
91
82
106
100
95
91
76
71
72
76
89
108
78
80
100
88
70
109
74
108
98
90
75
95
87
92
88
109
93
75
88
96
92
105
102
94
109
74
77
107
94
82
103
89
75
76
81
93
73
87
100
76
84
86
104
78
84
71
105
98
83
99
70
106
98
80
72
80
93
84
88
88
100
91
100
96
92
91
108
78
93
86
79
97
76
87
107
82
84
73
77
84
89
108
70
90
102
97
87
72
95
88
86
93
73
79
105
80
97
94
106
96
106
98
92
96
99
79
85
107
104
81
109
108
103
100
94
89
86
74
108
96
108
109
70
91
109
70
85
73
90
102
77
93
72
106
83
83
87
100
94
95
86
88
72
96
85
84
78
78
76
76
102
96
74
76
105
89
72
71
81
91
79
104
77
92
71
96
91
105
74
103
109
72
88
70
95
98
100
76
71
81
86
71
70
70
75
109
79
79
82
108
109
103
80
79
82
86
95
82
77
98
98
72
107
86
100
98
73
90
82
107
89
75
86
82
108
108
109
72
79
93
75
107
88
100
102
98
106
82
96
73
72
71
89
87
79
95
92
70
71
70
80
107
75
75
83
103
103
74
74
85
97
84
107
109
91
106
103
104
96
88
82
101
93
95
77
75
90
85
95
88
89
105
103
74
94
81
100
92
87
102
97
83
70
75
107
106
77
98
100
74
106
96
70
78
75
98
104
78
91
103
101
89
102
88
77
97
89
78
99
98
101
74
97
100
86
75
89
89
87
75
102
72
105
91
74
107
99
104
105
78
75
86
77
97
70
77
100
96
101
72
103
97
81
109
92
102
96
106
78
75
88
101
76
74
76
80
95
77
109
98
104
100
90
89
89
88
74
86
98
95
105
82
80
97
106
96
89
98
109
106
107
105
97
81
85
96
91
95
78
93
80
80
77
80
95
104
104
70
74
86
81
101
86
89
94
89
105
98
96
79
77
99
86
105
82
102
91
81
80
97
93
89
92
80
104
89
99
99
82
74
77
98
72
76
108
79
105
99
70
99
89
103
102
107
73
83
98
76
93
78
81
85
86
105
83
92
97
97
101
75
95
93
100
108
103
74
106
107
105
101
96
107
108
72
107
108
75
89
90
108
90
103
102
75
72
87
82
83
72
78
94
87
96
71
95
83
77
72
81
86
102
88
79
83
81
75
82
102
99
106
89
109
76
84
88
100
98
81
92
85
77
105
77
80
107
96
109
104
92
85
104
86
72
76
93
74
72
96
100
79
107
101
80
95
106
85
78
103
94
104
79
99
104
106
83
101
105
104
94
82
107
75
96
77
72
88
103
81
90
71
96
105
106
83
86
106
76
97
106
84
99
76
107
100
81
97
103
102
98
94
99
97
106
104
88
75
92
94
79
87
101
96
71
91
96
76
84
87
82
73
105
99
89
85
89
105
105
93
75
91
95
84
100
93
105
85
105
70
78
76
77
92
82
90
80
86
85
87
97
93
93
78
101
77
104
99
97
88
94
95
108
101
94
104
88
79
73
82
91
80
92
91
105
104
82
86
92
73
97
70
94
109
91
93
94
97
72
93
74
91
82
87
100
75
81
91
104
102
96
79
85
89
72
107
74
108
107
108
90
108
100
87
91
85
85
73
76
72
89
93
77
82
99
77
107
85
86
84
76
75
87
100
71
79
96
108
88
95
79
76
99
103
102
107
87
71
83
73
85
81
75
73
97
99
99
73
72
108
95
93
106
92
94
96
107
92
70
93
76
89
100
94
103
99
79
74
107
75
78
76
76
100
86
74
103
96
88
83
76
70
107
100
93
83
86
85
70
72
81
87
94
106
76
105
93
71
87
100
94
95
76
75
103
105
98
87
102
97
84
106
87
86
98
90
91
88
93
81
83
89
104
82
93
75
70
94
94
75
95
81
89
109
87
78
95
105
72
82
71
108
78
71
88
105
99
79
77
81
85
77
80
105
109
102
82
108
90
85
81
96
85
72
107
77
109
109
107
83
94
89
106
83
94
98
95
89
80
83
106
88
109
80
77
103
79
99
108
99
103
70
79
93
98
74
77
93
104
96
107
95
70
109
78
85
100
83
93
85
96
78
75
109
84
108
91
108
102
97
76
98
71
105
103
75
71
87
87
87
87
70
89
70
78
94
75
99
104
90
106
78
91
71
95
94
92
103
106
103
74
79
73
80
97
86
74
88
74
87
88
91
81
80
107
87
96
76
107
76
106
94
85
91
81
95
71
101
76
74
73
88
91
70
76
94
101
76
88
86
77
105
80
103
72
102
73
90
106
87
100
104
90
80
103
84
83
102
82
105
100
77
104
87
98
94
77
82
99
92
80
84
79
71
73
85
107
104
100
96
102
86
78
103
104
88
79
97
95
76
89
107
91
80
105
93
85
79
107
95
100
70
74
91
88
95
72
76
98
94
99
96
75
98
98
106
108
86
102
83
70
105
84
82
75
98
73
81
109
104
71
82
78
106
96
74
87
74
96
77
93
95
80
90
105
107
103
88
94
90
84
73
80
108
82
94
76
101
91
99
106
91
88
101
74
95
79
97
78
104
79
70
76
108
80
94
96
73
78
97
95
107
88
91
70
103
83
95
76
95
93
92
85
102
71
95
81
95
74
97
108
81
77
82
71
94
101
77
87
84
103
86
93
91
74
82
102
88
105
102
84
89
79
99
84
74
75
96
89
72
103
80
81
100
83
102
102
74
87
78
80
99
89
86
106
104
76
93
98
72
74
74
100
83
106
72
97
71
93
97
92
107
86
81
85
99
81
92
98
83
86
82
107
95
109
105
92
99
99
108
72
94
102
76
84
92
70
108
90
85
109
73
88
72
104
73
72
92
94
75
97
88
72
104
78
104
98
104
77
107
90
80
106
84
78
98
109
102
106
70
97
99
90
72
103
70
93
74
99
72
91
91
108
88
104
104
74
94
89
82
75
74
86
104
103
80
89
94
93
95
87
94
77
82
100
79
87
87
92
83
92
78
103
101
76
92
108
82
95
97
105
95
96
102
106
92
103
75
72
72
70
96
108
109
70
91
77
101
98
81
77
92
92
96
99
80
79
92
93
87
86
80
107
104
75
96
76
109
73
77
107
94
78
81
98
74
84
83
82
90
71
93
74
78
108
76
78
76
87
88
98
102
93
77
87
76
76
88
108
81
71
78
105
98
71
74
80
77
70
109
78
94
86
91
97
80
74
75
97
90
75
80
83
79
85
86
84
107
99
94
99
99
104
70
83
76
95
74
95
70
78
96
87
106
103
75
90
98
79
85
84
81
98
107
90
83
71
92
75
101
87
98
81
104
108
92
80
74
104
75
103
86
108
91
101
101
74
84
78
85
108
98
102
81
70
82
84
97
81
103
99
99
74
83
101
82
99
105
97
94
81
83
79
76
78
79
97
88
71
80
108
72
96
74
95
75
70
77
108
81
93
94
85
84
92
90
72
104
78
85
77
87
98
75
72
97
109
92
107
106
70
101
86
83
82
100
81
85
82
92
96
100
74
83
104
89
91
80
82
106
99
80
85
70
83
98
89
83
97
106
106
99
95
100
89
95
108
98
97
98
98
103
72
73
72
108
77
81
88
90
105
89
107
106
81
90
92
98
107
101
106
97
102
75
98
76
87
91
93
106
90
87
94
77
85
80
78
106
91
92
99
107
104
100
70
82
104
107
85
97
77
76
81
88
73
83
96
95
88
79
101
76
98
86
102
71
79
89
86
85
107
74
101
98
93
108
109
97
99
97
94
97
104
74
92
88
80
74
71
83
99
83
76
82
81
94
74
78
85
77
79
84
109
84
84
78
73
79
70
80
105
77
87
72
84
86
109
81
102
104
104
106
97
72
98
99
88
80
106
79
96
107
73
81
96
81
97
104
75
103
99
84
107
94
104
94
104
72
90
75
89
70
92
106
98
77
79
94
79
82
86
109
103
108
84
98
93
105
77
88
107
92
106
96
72
93
105
101
108
89
101
86
105
83
97
84
93
75
83
84
109
78
103
103
107
79
80
80
91
93
103
94
83
92
101
91
81
80
91
91
74
71
84
81
79
87
81
103
98
89
78
85
74
108
107
84
108
108
102
91
107
100
94
89
105
73
99
92
70
89
108
74
103
85
97
86
75
107
99
77
107
71
80
97
80
82
107
85
73
99
92
107
92
78
76
75
93
106
84
84
70
104
86
72
102
88
107
91
100
102
95
100
77
93
90
95
101
106
80
106
90
85
83
71
79
108
88
90
72
96
71
91
73
107
87
102
76
90
82
81
91
96
84
77
74
76
74
81
89
108
81
107
97
105
100
72
76
108
90
71
98
106
70
105
89
76
105
107
76
106
94
87
71
82
108
80
82
99
89
77
109
86
93
88
99
87
77
102
74
105
73
89
106
72
104
93
75
99
75
105
92
105
103
87
81
106
78
85
77
90
96
108
80
106
86
80
91
88
96
73
82
80
71
74
96
90
77
89
74
70
100
70
92
102
85
79
81
91
90
107
90
82
94
78
76
71
91
84
94
99
83
105
99
107
91
105
86
81
85
75
99
79
102
99
78
73
72
104
102
98
104
99
89
82
74
90
102
102
75
84
95
72
72
70
78
105
85
93
81
100
97
100
81
109
80
80
103
82
104
90
80
73
80
102
83
74
70
82
72
70
96
88
84
88
102
71
98
83
78
79
76
100
79
100
74
89
82
101
98
98
109
77
88
87
98
73
96
91
89
76
98
71
105
72
101
74
100
101
104
103
92
95
109
104
96
75
70
82
84
105
92
80
88
97
70
108
103
87
71
108
82
97
99
90
70
83
107
70
92
72
79
79
104
108
108
88
108
80
87
104
86
94
88
92
87
85
81
105
85
95
81
101
75
73
92
77
95
90
94
85
93
96
96
83
82
104
82
84
100
76
74
83
88
82
92
103
75
90
98
101
77
96
109
86
91
108
93
107
93
94
85
85
103
109
99
73
107
105
87
101
86
87
105
100
74
70
104
80
85
96
104
97
80
107
76
80
106
97
101
73
70
76
81
81
82
102
95
75
97
80
98
106
84
89
92
74
76
106
77
95
91
79
84
107
108
104
102
74
80
89
84
105
83
71
97
86
102
93
109
73
86
93
92
107
85
74
83
70
103
109
91
85
95
79
70
85
99
87
98
77
109
100
92
74
100
86
70
78
99
80
76
97
88
88
100
105
104
98
109
86
105
89
89
105
72
87
109
70
108
72
80
79
106
98
74
92
82
80
72
104
73
103
109
93
89
96
107
82
95
72
106
76
75
92
96
107
93
97
98
95
94
98
97
107
93
107
105
72
83
94
86
76
97
76
104
93
96
103
104
97
73
85
91
80
94
71
103
84
96
91
92
71
107
103
85
70
95
71
70
77
73
96
88
91
105
86
76
103
77
91
84
107
102
73
104
80
72
106
103
91
88
102
92
86
82
77
91
74
97
101
100
83
106
78
88
84
106
84
89
77
103
85
87
74
77
108
88
102
83
77
79
80
109
73
105
109
99
109
108
78
105
70
73
83
72
72
75
87
85
79
72
78
104
101
88
93
88
109
76
98
102
95
88
91
95
78
76
75
86
78
79
74
81
74
101
100
90
93
92
93
72
95
97
83
87
98
80
85
94
102
83
98
80
90
74
77
94
91
92
96
107
106
109
95
71
105
73
78
103
78
104
109
93
84
75
107
84
78
78
97
96
93
102
88
75
84
100
109
106
106
98
84
74
79
70
76
101
99
93
97
97
107
74
71
83
85
79
78
103
103
91
81
84
107
92
83
86
70
87
84
75
88
78
104
83
102
81
81
81
79
96
70
95
100
104
92
89
84
92
76
81
78
70
77
107
96
78
108
73
87
98
89
74
80
95
107
78
103
103
78
77
70
91
109
81
81
82
107
73
71
91
102
80
99
104
70
77
91
108
82
100
89
94
84
85
81
70
94
99
74
95
76
88
88
85
92
79
73
73
84
74
87
108
83
77
86
72
75
75
78
109
93
79
90
74
101
85
82
106
95
82
87
106
91
90
101
103
109
97
77
93
80
92
100
86
75
80
70
71
84
75
79
90
101
90
100
95
93
107
85
100
104
76
93
71
105
83
101
89
103
95
78
101
101
95
77
97
103
90
92
93
98
102
95
98
107
93
85
109
91
85
88
75
97
95
85
87
80
107
95
90
90
73
97
82
102
107
100
86
78
73
88
105
84
85
94
78
94
97
77
99
95
93
91
96
96
109
95
81
95
98
109
106
79
104
89
99
80
104
87
109
96
87
106
108
74
71
76
77
71
92
102
73
74
81
104
83
79
100
75
86
79
88
93
82
109
90
109
89
109
94
103
77
70
82
82
93
77
91
88
88
108
87
70
73
99
99
70
99
94
78
97
86
102
93
80
106
77
96
100
92
100
109
84
87
79
76
88
85
108
75
84
94
87
91
79
96
98
106
76
72
99
90
88
104
70
81
101
89
77
91
79
99
101
70
78
99
107
76
99
83
103
70
102
88
96
94
103
105
87
86
83
75
104
87
97
109
71
93
70
72
103
81
86
94
73
79
92
96
107
90
84
104
71
76
71
70
101
106
87
81
99
70
107
84
100
71
92
84
87
95
89
103
91
108
81
79
79
73
72
78
86
77
83
92
82
92
103
71
104
93
86
83
78
108
108
98
80
89
97
70
80
105
104
77
103
83
80
83
71
77
104
86
108
71
96
70
99
96
109
92
72
105
78
77
70
95
101
102
75
109
104
82
106
81
105
82
93
77
74
85
82
97
101
96
77
95
83
103
87
71
91
108
70
85
85
95
85
87
87
96
93
75
89
89
75
73
108
103
84
76
72
98
79
87
86
99
98
85
83
102
88
90
71
72
97
104
76
83
74
101
107
79
86
99
107
91
77
103
107
108
77
87
82
85
86
85
101
80
90
105
105
100
77
95
98
104
105
108
107
102
93
71
87
99
71
85
95
79
80
85
108
104
103
86
80
108
72
93
96
94
78
75
93
104
94
71
76
75
103
72
106
82
103
86
99
78
79
73
77
101
98
106
73
100
106
105
82
87
76
78
105
78
77
84
95
99
108
90
108
105
98
84
80
87
79
98
105
85
79
88
101
71
93
70
80
103
94
72
95
103
98
104
70
104
71
82
95
101
70
97
108
91
90
104
87
85
102
76
79
106
86
80
70
82
88
104
74
98
108
91
80
76
107
107
103
107
100
94
92
85
85
74
106
97
71
100
101
83
82
74
71
109
76
98
74
105
100
90
78
93
107
74
102
93
86
79
102
79
85
105
80
91
79
86
71
82
82
96
107
81
101
77
95
102
89
79
71
74
96
91
102
87
92
109
70
91
99
108
106
109
81
97
81
104
94
70
99
87
90
77
89
96
71
102
104
84
70
85
94
85
108
83
80
96
78
100
83
77
98
106
82
109
80
80
96
100
82
97
102
95
79
105
94
72
86
84
81
71
74
102
95
91
80
91
101
81
97
72
92
76
92
97
103
78
75
84
108
70
97
94
87
91
74
101
108
104
84
94
108
104
77
96
89
100
101
89
101
74
101
87
72
72
96
105
73
97
89
79
71
79
93
95
88
99
82
90
105
97
88
94
95
103
103
77
78
87
90
94
96
74
91
82
88
80
86
90
87
78
106
104
79
79
93
83
71
78
104
94
86
74
99
75
99
107
73
76
76
100
88
98
85
82
74
90
76
100
103
109
75
84
71
78
85
101
90
82
77
92
82
75
83
108
84
101
88
85
99
85
84
77
93
70
78
106
74
94
76
78
98
88
75
83
70
83
73
105
75
108
98
103
106
103
104
78
99
108
70
84
83
95
94
79
91
72
89
80
84
101
72
91
80
93
88
76
74
86
99
100
72
80
93
76
103
108
100
105
81
104
84
81
75
76
82
93
98
98
71
95
87
81
103
70
71
74
90
103
88
87
75
94
97
97
96
94
74
73
105
109
100
105
108
91
106
91
87
109
72
74
72
85
107
81
98
84
97
89
97
91
74
94
88
94
95
92
97
98
98
86
85
89
87
103
84
91
105
108
103
79
103
106
107
75
72
84
73
80
109
80
85
97
103
99
84
109
105
74
89
83
79
74
97
70
79
90
77
73
102
80
80
76
103
104
82
96
79
100
76
96
108
97
101
104
88
78
77
90
96
91
72
87
98
95
100
91
102
90
71
92
76
85
75
100
70
94
83
93
87
96
83
76
77
107
74
73
99
72
83
86
106
95
93
70
90
84
88
97
99
88
73
77
104
108
104
78
102
83
103
89
97
88
101
109
96
94
92
92
74
87
80
89
106
79
90
106
79
89
83
79
102
98
77
91
84
93
94
91
94
71
78
101
76
92
99
75
102
97
91
88
109
84
83
82
101
105
109
104
105
86
87
86
80
89
81
103
103
105
70
82
103
74
104
72
88
77
86
109
78
102
71
101
99
80
99
73
109
78
103
106
89
92
74
70
96
94
86
104
89
102
73
92
96
76
108
99
109
105
75
84
72
92
79
93
92
97
105
80
97
71
96
88
78
73
108
70
70
79
76
79
107
86
85
73
73
77
75
94
108
105
93
71
92
108
108
93
80
97
101
76
73
75
72
74
96
94
103
86
83
70
90
100
100
103
99
80
74
85
94
88
84
85
83
79
107
76
94
104
87
94
103
104
77
73
94
79
96
83
81
103
94
82
82
70
108
99
98
105
100
92
91
82
93
86
108
100
84
85
77
91
82
74
78
90
94
107
100
95
109
105
100
105
79
106
82
93
84
96
108
85
86
91
82
107
72
98
73
109
88
79
89
73
105
84
76
82
92
104
72
83
71
94
102
84
79
96
75
99
99
72
87
108
88
96
77
92
100
107
82
106
101
90
98
104
106
91
87
105
93
80
107
99
103
100
104
94
92
107
93
77
89
82
92
85
91
108
82
108
89
95
103
109
101
103
95
104
103
89
96
86
99
91
100
70
84
98
89
82
97
91
80
70
78
94
99
97
86
104
106
76
88
72
80
99
80
84
73
82
95
77
86
107
85
97
77
85
78
79
75
94
75
80
99
92
75
108
92
72
97
82
101
100
88
101
108
87
100
83
72
78
75
79
107
93
108
74
76
103
94
93
108
74
108
106
72
79
87
108
102
97
77
92
91
91
97
77
76
70
107
106
92
99
82
71
78
86
71
78
83
93
91
75
93
96
99
105
77
88
91
86
98
100
97
76
108
74
76
106
88
107
101
107
76
82
76
77
78
78
70
85
104
70
101
97
78
101
73
85
107
71
70
106
105
106
109
76
79
72
72
107
72
76
80
77
90
74
97
89
100
77
81
87
83
91
101
86
79
91
76
94
106
91
104
104
89
91
74
83
109
70
101
88
84
89
94
80
108
108
98
84
72
106
105
84
86
108
97
100
103
98
102
93
89
92
81
80
74
78
79
105
94
107
91
89
83
107
94
91
91
80
102
84
89
101
101
77
104
88
84
98
80
90
103
72
74
92
82
75
78
92
108
77
106
88
83
94
94
98
97
80
79
101
102
98
81
79
85
72
88
72
99
81
96
106
85
73
83
72
98
103
99
84
90
73
105
108
76
95
70
93
70
94
103
83
72
79
78
80
90
103
103
83
88
71
88
82
90
102
85
83
73
86
82
103
79
100
75
88
71
100
104
85
93
85
101
100
102
105
105
87
75
96
85
90
82
109
88
99
78
105
96
83
96
70
75
84
102
78
103
108
82
86
71
73
78
93
95
101
96
98
74
77
104
101
106
76
89
107
71
109
71
80
91
96
78
97
86
92
108
72
94
103
104
91
74
90
106
102
70
73
84
72
97
81
90
100
109
98
102
106
71
79
103
77
80
91
91
109
75
79
107
96
88
98
86
92
104
96
72
89
90
70
108
85
77
76
104
71
103
75
80
96
102
82
70
87
109
84
72
100
105
100
98
71
101
100
70
106
82
98
81
108
91
92
95
71
80
109
74
101
89
104
71
79
109
101
106
109
83
90
100
85
90
92
105
101
92
94
103
83
88
72
83
88
96
100
70
80
96
85
81
102
105
81
84
93
108
89
109
81
74
78
95
71
76
102
73
75
87
71
89
89
82
108
72
78
83
109
96
95
102
84
75
82
95
101
70
84
83
77
86
106
98
87
106
108
104
83
81
95
76
104
93
91
72
99
104
92
98
97
93
84
90
73
91
97
77
101
101
98
81
74
70
72
75
102
75
75
93
90
89
83
76
97
81
96
73
104
73
92
86
109
94
103
107
92
86
99
73
80
98
97
96
72
76
99
92
91
109
84
101
84
90
109
87
97
96
74
94
88
85
100
94
107
81
96
107
79
70
88
76
95
108
72
78
86
80
107
70
77
93
87
70
89
75
95
108
96
103
96
87
86
100
86
108
107
81
79
96
88
90
88
79
106
75
71
108
77
82
97
97
92
101
92
81
96
100
104
101
72
96
106
92
80
108
105
78
93
75
100
99
95
98
91
71
72
72
78
89
76
75
91
85
105
84
92
86
74
78
79
72
70
106
96
85
86
103
84
78
103
73
79
92
85
95
73
87
73
81
101
95
76
98
74
81
92
98
77
93
70
96
70
86
101
94
82
105
81
76
89
90
108
106
89
83
73
72
75
77
102
73
108
76
84
95
86
71
108
88
104
94
76
82
84
79
91
107
104
97
97
84
79
106
74
86
80
95
100
86
71
99
71
109
91
98
109
83
72
109
90
109
77
72
86
84
89
82
88
81
90
94
101
78
78
72
90
78
77
89
70
79
103
103
91
95
82
79
103
101
94
100
109
82
77
108
90
79
109
89
85
88
88
77
102
98
102
90
99
73
89
89
70
85
105
74
75
86
105
107
105
109
90
76
102
109
70
106
80
82
96
82
90
89
82
73
91
80
79
74
109
71
98
103
101
88
79
83
102
90
72
104
99
76
75
77
109
96
90
98
81
102
74
78
86
83
97
73
109
97
105
70
106
89
98
91
74
70
71
100
101
84
88
76
102
105
72
94
105
82
96
76
77
74
107
85
82
86
107
84
108
92
92
79
80
70
88
101
86
81
107
75
80
83
71
105
98
100
99
72
75
108
103
95
91
70
76
71
93
75
97
107
95
82
73
100
95
78
99
108
104
104
106
97
78
103
71
109
78
102
83
83
90
77
105
76
84
106
99
92
104
81
108
102
86
105
78
87
72
74
85
105
73
92
76
78
79
73
102
89
75
102
80
79
71
85
93
75
95
79
105
107
74
72
99
101
98
107
92
86
91
105
93
108
81
92
81
98
101
72
102
84
73
100
74
84
105
85
83
108
77
76
79
85
92
89
101
80
99
72
84
82
95
99
99
109
87
104
73
77
93
108
94
88
87
88
105
82
105
108
75
87
85
97
91
74
86
75
108
86
80
86
100
91
108
96
71
76
100
72
76
86
106
94
85
107
101
83
109
104
102
98
101
76
80
71
79
82
87
94
103
72
90
103
102
81
92
73
97
80
79
109
106
70
106
85
109
70
108
108
78
79
97
71
105
82
70
109
81
101
71
107
93
70
97
107
97
100
100
85
73
90
97
94
91
77
109
97
93
89
92
108
100
87
98
76
79
82
86
83
83
106
104
97
96
72
76
80
108
99
71
101
79
98
73
108
71
83
92
91
101
76
84
89
95
88
72
88
95
108
104
106
76
82
87
104
103
78
75
88
73
103
107
95
91
104
88
77
86
96
78
73
109
95
85
85
103
82
108
108
73
88
93
104
100
77
71
88
90
103
87
98
95
96
96
94
94
100
78
76
89
83
85
85
109
73
95
80
93
108
109
94
102
109
101
72
91
83
78
90
105
76
72
79
102
78
87
103
78
77
74
94
102
86
70
79
109
91
89
89
71
87
92
88
84
109
104
95
72
108
76
101
77
78
93
86
102
105
96
84
108
109
92
93
95
79
100
86
85
85
107
80
79
83
72
106
108
102
108
71
109
95
98
98
76
82
103
71
87
96
90
92
81
106
85
80
90
103
92
90
77
95
78
85
83
104
90
106
95
97
100
95
82
94
88
87
95
91
85
106
97
92
102
103
83
101
101
71
97
85
89
107
94
89
106
73
85
94
82
106
83
102
94
88
77
79
77
94
86
72
96
80
76
93
91
78
84
77
83
90
98
99
89
90
78
106
86
106
99
84
95
74
106
84
90
88
79
91
105
87
98
104
80
72
80
75
106
104
75
76
104
106
103
79
100
70
94
107
91
91
79
76
81
80
107
93
98
105
96
73
94
88
73
108
100
91
77
102
82
93
87
104
76
71
87
90
107
95
95
100
96
105
88
84
81
70
93
95
91
83
104
107
74
83
101
84
108
103
92
101
108
77
74
74
78
87
74
100
102
102
87
85
70
78
86
101
103
99
98
91
96
77
72
87
109
80
92
72
97
86
107
106
80
73
83
98
94
92
88
101
84
74
104
94
108
89
73
78
83
88
105
81
78
95
102
87
72
85
80
72
99
72
92
75
101
88
98
104
101
109
81
101
102
91
89
86
99
99
105
89
99
108
90
73
80
97
76
96
106
76
96
75
89
91
101
81
83
75
79
84
107
107
101
107
107
106
105
95
91
91
70
92
98
95
77
106
76
100
72
93
108
109
83
82
92
89
88
84
84
97
98
93
79
92
108
104
84
94
106
79
83
105
88
96
102
97
106
102
98
79
76
93
70
78
107
77
92
90
99
99
109
90
91
109
106
83
94
108
80
71
107
103
92
109
79
109
95
75
97
91
75
82
87
95
79
89
71
108
104
100
72
104
97
86
98
74
91
101
107
71
72
109
92
94
77
88
91
83
95
84
74
74
79
85
80
101
96
85
87
79
80
105
86
105
70
86
87
76
99
100
99
105
84
89
93
70
71
97
77
98
75
77
94
83
77
81
105
109
104
83
83
93
109
104
101
71
92
105
91
93
106
87
71
73
99
82
102
101
97
104
91
73
85
108
107
77
70
109
89
80
80
74
75
104
79
106
109
90
100
104
100
108
71
78
109
89
102
73
95
109
84
102
94
89
109
76
74
90
73
82
80
77
80
90
71
102
93
102
86
81
102
81
91
80
106
82
103
103
92
85
72
100
79
74
95
90
91
106
100
104
71
79
102
78
79
75
95
80
72
100
96
102
81
70
89
106
85
98
107
83
102
70
89
74
108
108
76
92
86
88
95
88
104
100
75
89
85
70
76
85
87
108
107
103
86
103
100
74
85
78
75
71
99
100
99
97
80
93
87
103
70
109
77
90
83
73
95
95
76
106
108
71
91
87
95
101
108
90
78
72
77
79
101
74
108
72
100
103
85
92
95
90
84
105
84
109
80
71
106
96
97
87
96
108
100
92
92
88
84
73
78
75
106
100
91
83
72
81
70
78
83
81
84
79
80
92
94
91
80
109
101
108
95
78
81
85
105
100
98
104
93
99
83
77
103
101
76
107
81
71
71
84
89
77
93
108
81
79
98
98
75
76
102
98
83
102
93
106
82
78
90
100
80
73
79
92
90
106
104
98
108
91
81
106
96
103
100
106
96
98
88
83
104
98
94
76
104
79
102
75
88
82
90
93
93
90
73
81
75
84
95
104
83
92
106
103
104
103
96
80
84
91
96
102
88
73
78
88
84
106
91
80
99
96
75
108
91
86
105
84
91
75
73
109
78
90
100
77
72
101
73
80
86
108
97
91
75
105
108
95
87
78
107
104
90
97
102
103
75
78
71
100
82
109
94
72
76
70
70
106
72
90
95
104
93
100
93
81
71
104
98
73
82
91
104
84
86
108
82
102
92
104
75
99
79
84
94
106
78
95
71
87
89
101
106
89
98
100
76
81
87
72
78
85
101
74
89
108
87
81
94
107
79
95
93
71
75
95
89
91
92
93
97
76
75
79
74
91
77
90
108
84
105
105
74
109
79
97
78
72
108
104
92
108
91
80
85
89
102
78
79
83
101
104
75
89
101
103
88
94
109
73
70
96
94
105
85
95
81
107
71
72
77
98
91
98
73
101
107
81
94
82
96
82
89
73
101
94
88
93
106
82
91
78
98
85
93
90
87
100
82
77
108
107
75
71
74
93
80
93
95
78
94
106
101
71
73
103
87
98
76
81
81
70
78
83
80
85
71
107
88
92
99
73
85
107
94
101
91
93
105
96
90
106
100
71
108
83
93
99
97
70
103
76
78
75
95
79
89
94
75
85
96
95
100
102
90
94
109
86
109
82
100
71
74
91
105
95
103
94
92
76
91
98
76
77
87
73
77
82
99
81
98
71
95
92
76
85
83
101
97
105
80
83
96
89
105
90
108
108
92
104
103
82
70
102
73
76
86
80
97
101
80
71
91
89
85
76
99
76
80
95
97
95
76
74
94
78
101
95
94
85
85
81
93
101
88
98
71
98
105
104
99
103
102
101
103
99
106
87
82
109
82
78
102
86
90
93
101
71
80
106
86
99
80
97
71
70
82
85
93
78
90
80
90
96
79
70
94
94
86
109
97
96
103
104
88
104
104
109
78
75
72
98
85
101
71
87
109
84
93
96
84
80
104
98
86
73
74
88
79
81
89
94
103
75
80
78
78
77
79
105
80
98
71
105
106
99
81
76
70
95
87
107
75
96
99
84
73
73
70
93
75
100
100
74
93
96
86
96
104
100
103
91
76
77
100
109
78
70
86
72
82
80
90
102
91
103
90
95
80
80
109
91
89
72
101
72
91
103
104
70
87
93
73
105
90
83
103
87
105
101
70
107
99
78
92
89
99
100
79
91
94
86
86
83
74
92
85
81
104
86
101
72
91
72
83
100
89
100
88
71
90
80
81
108
78
105
79
99
76
88
89
79
105
100
81
100
85
73
77
77
92
71
95
109
83
94
103
108
74
104
103
84
105
71
79
93
102
90
98
94
86
90
72
100
73
73
70
72
75
77
107
100
88
81
77
86
72
94
91
97
100
72
100
96
80
91
96
76
73
88
77
72
88
106
85
83
79
78
109
77
76
82
89
70
76
77
86
83
106
80
81
74
96
91
87
81
76
83
76
106
79
107
103
90
91
104
94
74
83
90
70
76
87
79
94
74
103
90
76
92
104
76
80
97
85
82
72
80
72
96
99
103
97
107
90
75
70
101
84
97
100
85
73
93
108
109
89
105
98
72
102
97
98
83
79
100
76
84
103
85
90
96
86
107
103
73
77
93
82
88
103
90
98
79
102
104
93
107
92
83
76
104
108
105
105
101
96
76
108
97
92
80
106
85
99
93
88
100
72
86
78
98
104
75
95
105
102
85
103
81
86
104
94
72
102
86
93
88
98
97
70
73
104
80
81
71
99
86
84
77
107
96
107
89
77
102
105
90
87
75
109
104
87
96
96
75
92
78
109
78
93
99
90
101
89
94
87
77
71
94
77
107
95
105
80
87
80
73
80
82
99
75
109
86
71
74
89
70
103
106
98
78
81
73
71
76
89
99
107
102
109
77
96
70
98
97
87
100
95
76
77
98
80
93
95
78
94
96
89
75
93
73
91
105
78
84
102
102
94
92
78
85
103
107
88
70
101
90
109
94
76
89
103
89
88
105
92
77
108
96
97
73
95
93
81
109
100
108
94
76
90
100
79
87
76
87
99
92
72
74
108
87
85
87
95
95
89
79
84
85
81
91
97
104
78
92
84
77
100
97
104
101
91
74
79
70
83
83
89
71
100
75
92
70
100
77
101
109
93
86
94
77
102
73
104
81
104
95
99
94
108
99
91
97
107
109
85
82
86
101
91
103
103
75
108
84
88
100
72
74
91
79
82
93
105
105
103
75
95
94
94
90
109
105
88
80
105
86
74
89
92
102
81
77
75
75
93
80
97
100
73
94
82
75
82
70
75
76
85
70
81
97
78
88
96
85
95
75
93
93
70
77
93
78
82
72
79
74
87
82
87
109
95
74
84
103
100
103
93
107
107
99
80
88
83
72
75
93
103
98
79
82
88
77
81
100
87
96
98
82
81
75
82
70
83
92
88
94
96
80
101
84
97
73
99
74
76
83
96
106
81
75
79
109
89
82
104
90
95
102
70
73
99
89
106
81
85
87
94
79
79
98
77
95
86
80
89
80
90
80
77
108
84
104
93
77
88
74
74
78
83
73
90
96
78
79
71
92
92
72
78
73
104
100
108
94
75
104
100
74
77
87
100
90
81
88
105
83
86
88
71
105
106
81
102
103
98
98
97
88
72
73
72
93
109
78
89
95
71
74
107
80
92
73
75
85
87
83
107
71
82
97
95
75
93
70
73
86
70
84
72
84
74
89
85
83
75
73
94
84
91
78
102
90
103
92
100
86
87
74
83
81
77
71
75
91
76
89
109
101
107
100
85
98
82
72
99
83
100
84
82
75
94
90
101
87
71
83
78
75
96
84
89
105
78
105
105
107
102
81
89
83
96
106
78
72
87
95
91
84
88
95
77
93
105
80
80
81
76
75
89
85
76
74
94
102
94
87
106
81
108
79
86
73
78
71
92
104
90
77
70
88
78
98
95
105
99
71
103
70
85
70
109
99
72
90
96
98
93
90
87
102
101
98
90
87
109
106
96
80
98
106
106
109
71
78
88
97
77
71
74
103
75
75
98
71
70
102
88
91
98
81
102
82
90
90
94
85
76
107
72
73
72
87
104
84
91
82
80
107
79
105
82
75
85
99
80
87
94
94
79
106
94
76
73
85
98
95
98
75
76
107
102
74
76
75
73
93
73
95
95
88
80
108
93
100
76
92
79
108
103
96
108
94
88
76
87
94
78
98
103
88
92
97
81
109
101
94
76
103
89
76
77
72
105
81
108
104
88
89
79
102
74
78
86
81
89
96
87
87
94
82
83
101
109
101
72
96
76
73
96
92
85
73
98
83
81
102
72
88
80
79
97
100
87
80
103
89
73
80
75
86
89
71
72
74
70
80
77
108
72
99
79
98
98
78
103
80
73
109
103
100
76
96
99
72
85
84
86
72
87
100
90
100
103
74
108
79
88
72
79
89
98
84
80
82
82
100
74
89
72
70
83
84
77
107
78
80
76
84
107
84
75
85
84
81
97
74
89
108
82
88
86
95
89
85
83
92
93
106
92
92
71
95
90
80
75
96
83
93
93
103
93
109
102
82
97
76
71
71
93
96
85
85
74
93
94
85
72
88
75
96
94
74
94
74
78
95
109
104
88
95
72
70
86
101
72
100
97
103
104
98
74
109
105
81
91
85
88
76
71
109
91
95
70
107
108
86
86
74
108
106
79
94
76
80
93
106
96
106
108
96
101
89
103
105
101
91
97
77
88
82
104
85
93
102
94
78
106
108
82
97
72
102
71
106
74
77
107
102
95
84
90
104
102
103
76
109
90
108
76
70
94
80
75
78
90
101
77
109
71
75
82
76
104
85
79
98
97
93
70
71
84
82
107
95
90
81
97
72
87
82
101
96
81
77
80
89
74
101
107
78
108
107
70
75
100
86
105
87
98
81
87
109
104
77
88
84
89
73
86
84
109
103
74
90
82
106
79
78
92
93
87
106
88
84
78
93
109
105
100
73
85
96
86
74
83
92
87
81
76
78
99
71
99
75
92
78
96
77
81
76
105
85
107
73
100
95
98
84
75
102
104
72
73
106
100
93
92
71
105
92
83
73
80
83
74
92
108
98
92
72
84
85
88
101
78
91
87
75
106
94
77
78
93
84
94
104
95
101
91
71
103
78
109
80
109
86
73
100
96
71
93
99
73
79
98
102
88
79
74
97
86
92
100
80
91
76
109
89
104
107
73
83
79
87
107
86
90
80
81
83
90
109
76
100
105
107
71
87
73
103
85
80
94
93
103
109
106
89
78
93
88
87
86
99
91
87
108
96
79
83
98
71
72
83
97
93
90
105
102
73
105
89
71
104
83
75
71
92
74
92
72
93
86
89
81
96
74
109
81
72
93
77
91
98
76
107
83
86
70
104
79
74
81
102
81
97
107
76
100
93
99
82
108
72
73
104
75
81
91
83
82
85
90
96
93
100
109
91
90
85
100
90
91
93
79
85
90
92
103
105
109
72
101
102
106
102
99
86
76
86
104
87
70
71
72
106
71
83
106
108
71
92
84
93
98
71
108
80
91
80
72
106
106
78
73
103
97
88
91
97
107
96
80
74
102
71
77
92
82
81
109
94
82
98
101
98
99
74
89
109
99
85
109
95
76
94
109
84
81
93
88
106
96
78
83
91
81
92
91
77
70
77
77
89
83
96
97
81
95
101
92
109
107
100
101
96
99
72
107
86
91
85
76
81
76
80
105
84
103
94
96
71
82
88
74
108
96
77
87
106
93
72
102
80
83
76
74
76
94
85
73
109
103
88
86
93
103
86
90
91
82
78
94
88
94
81
100
73
84
105
87
76
102
92
96
78
82
101
83
100
70
92
89
97
84
95
102
80
104
73
86
106
88
98
76
73
75
72
83
102
77
100
73
96
90
88
89
95
88
79
71
96
107
85
73
89
75
73
92
96
96
96
109
87
105
77
106
106
73
93
80
84
99
103
109
87
72
108
80
98
95
99
88
80
108
73
91
103
107
71
105
78
86
108
87
99
94
108
72
91
103
97
89
91
104
97
83
79
73
88
79
81
108
88
85
108
73
103
94
73
109
104
107
98
83
83
93
93
103
81
70
76
102
99
87
90
73
99
92
80
76
109
77
98
106
71
78
91
83
71
90
80
73
84
83
107
71
87
109
87
91
107
100
108
85
75
90
75
88
75
86
108
106
75
98
77
71
71
75
95
98
89
95
92
70
91
81
91
81
72
88
87
106
99
82
108
93
74
99
84
101
84
74
105
82
88
78
92
91
96
84
86
93
86
77
84
76
86
94
104
82
76
87
102
86
103
80
100
94
103
88
70
96
75
81
105
109
102
89
102
79
106
98
105
109
101
100
90
100
84
88
75
81
77
72
92
76
81
94
76
103
82
75
73
96
98
89
90
106
84
83
90
99
86
107
79
89
71
92
92
86
109
89
84
102
83
101
105
103
105
85
84
97
100
75
85
85
72
76
100
82
83
108
73
70
91
72
98
82
91
77
99
97
74
79
75
91
92
77
100
77
78
75
83
91
92
71
89
104
93
88
81
77
81
84
91
97
81
74
72
80
89
103
71
86
98
84
88
78
82
87
78
94
80
73
90
77
98
81
86
73
105
95
95
106
72
75
80
107
97
87
98
106
105
74
96
109
109
103
90
95
77
109
72
107
71
72
89
81
95
88
100
71
109
96
88
106
96
106
95
101
106
89
80
104
108
71
77
93
92
72
82
103
75
94
104
76
76
102
88
85
106
76
83
107
97
75
90
84
71
79
90
86
92
78
106
107
105
100
72
102
109
102
80
86
70
82
94
80
78
85
87
97
91
93
91
108
91
72
78
73
95
83
79
103
88
72
88
83
72
74
87
73
83
75
100
99
77
89
76
80
101
108
109
70
82
91
84
91
109
87
83
80
88
79
79
104
85
86
73
71
98
98
75
78
83
86
93
102
73
75
96
75
81
106
92
92
72
94
85
103
102
72
107
74
104
74
74
88
83
79
86
104
86
74
75
92
95
79
85
73
96
80
92
82
99
97
90
82
100
78
103
97
95
99
108
79
81
83
71
95
75
77
87
86
84
108
73
84
102
70
74
105
93
88
70
108
91
80
72
88
87
99
98
89
70
96
95
94
99
76
80
94
108
87
100
96
77
79
107
85
89
76
93
89
109
83
78
106
95
87
93
96
103
77
78
70
70
95
84
71
108
100
99
93
102
109
93
70
96
75
75
88
94
71
78
95
82
90
94
76
97
70
83
72
78
108
106
81
84
96
91
100
78
82
81
108
89
103
73
81
109
87
95
101
95
80
77
99
75
99
85
105
72
93
96
88
108
89
80
97
74
99
100
106
72
80
74
97
94
101
90
105
76
109
71
99
100
71
105
102
80
95
98
82
77
92
86
81
104
98
94
95
103
97
102
100
83
93
101
71
92
79
78
85
102
92
77
82
91
85
99
88
98
71
94
86
78
83
83
90
82
73
93
74
75
96
98
104
86
73
92
108
100
109
70
94
90
92
79
76
78
80
100
104
96
89
89
78
85
106
71
92
98
108
77
75
79
98
72
86
105
100
109
89
76
104
89
83
81
77
87
94
85
82
89
95
98
71
74
89
82
74
108
103
73
93
70
82
74
93
88
79
92
94
73
77
79
86
81
101
74
88
99
75
102
73
109
84
81
104
99
88
100
73
72
106
77
75
79
94
92
83
106
99
88
96
88
80
106
88
100
108
93
99
108
88
99
79
95
104
92
75
74
91
91
73
85
70
89
77
89
95
94
83
101
105
76
96
74
92
71
103
107
103
98
87
97
88
76
107
78
90
75
90
89
89
103
104
105
90
74
109
85
79
95
76
106
89
89
71
87
70
77
73
94
94
106
92
76
105
95
76
107
107
70
92
101
74
81
104
101
87
106
90
88
91
79
72
106
85
101
94
86
105
92
104
109
106
100
91
107
99
94
76
78
83
86
89
105
95
72
71
96
85
80
108
101
94
86
86
74
90
90
107
88
99
109
90
104
107
96
98
95
103
96
82
103
89
74
105
100
104
84
87
108
99
109
107
99
78
101
102
85
75
72
72
93
76
86
81
78
88
103
83
72
101
102
70
102
70
75
108
77
76
109
71
71
73
104
79
73
83
99
88
74
94
85
75
109
85
82
108
104
98
80
76
78
76
95
72
82
89
96
98
109
84
84
86
82
72
89
72
80
102
105
100
96
75
99
94
88
94
78
99
94
97
83
95
105
101
91
80
76
107
105
107
76
88
105
78
109
88
96
102
104
71
94
82
88
107
74
95
85
94
100
70
96
108
105
75
96
103
74
86
84
83
70
95
74
79
90
102
80
80
78
105
89
101
106
82
74
102
72
72
93
102
99
101
70
99
81
79
92
107
101
99
98
98
80
71
71
97
89
94
99
73
90
74
91
104
109
85
70
107
95
72
72
85
76
72
79
103
107
85
77
89
83
77
70
79
78
105
74
71
101
78
85
74
100
79
85
82
72
81
83
91
86
103
94
108
86
87
93
80
103
108
83
96
92
93
87
107
96
94
93
89
79
78
95
100
93
73
88
105
90
103
91
109
94
85
95
99
97
98
70
85
94
76
78
89
97
108
95
86
103
103
102
86
93
70
89
103
108
81
84
101
91
72
100
82
94
98
82
105
109
73
99
87
104
93
77
91
73
88
76
71
98
90
86
71
89
79
107
98
97
70
81
79
92
82
87
90
78
86
81
86
99
76
75
93
83
87
73
86
85
99
71
79
105
81
100
108
83
87
93
78
77
87
95
86
76
103
100
100
102
73
90
92
98
100
104
96
89
74
74
84
75
75
103
93
109
99
106
91
98
103
70
82
103
70
101
91
91
85
107
104
103
107
94
72
98
71
88
104
89
79
80
75
93
90
86
106
101
103
102
71
94
88
95
70
87
82
93
86
90
102
107
79
88
100
92
77
92
102
92
108
99
76
91
99
74
103
74
101
97
79
89
94
87
96
72
100
102
82
101
78
104
73
77
81
73
109
102
88
103
98
84
92
80
98
107
101
99
89
101
87
98
90
75
97
86
73
97
90
75
80
78
76
93
102
89
85
75
76
82
92
107
74
104
105
71
82
79
72
95
82
109
96
95
104
76
95
73
81
82
72
102
107
79
79
106
108
79
76
109
91
90
79
89
101
104
91
104
98
96
78
78
73
82
87
72
97
108
105
83
74
106
87
87
91
106
104
93
101
79
78
95
72
92
89
96
85
83
97
108
99
94
92
73
86
78
109
77
109
74
86
81
91
75
95
87
80
85
95
73
104
96
82
82
109
72
75
80
89
82
76
74
94
89
108
70
73
71
105
103
92
95
103
109
108
75
103
85
106
97
99
83
77
84
104
85
72
96
77
106
88
85
92
98
74
96
86
71
106
95
108
101
70
75
107
78
92
99
79
74
89
70
76
101
101
81
81
80
99
74
70
77
84
92
71
101
78
77
90
100
97
76
77
88
83
94
99
93
77
91
89
85
86
84
83
94
86
88
85
76
93
96
87
97
100
95
72
90
108
94
86
84
71
71
101
70
92
88
79
97
86
90
91
86
87
91
80
86
73
97
75
72
78
104
79
94
104
77
109
89
91
108
77
95
74
95
84
81
79
104
86
74
103
73
85
85
101
82
90
78
102
107
108
100
85
107
87
85
72
72
87
91
91
87
77
77
83
78
105
89
77
72
96
72
80
89
88
83
97
82
90
93
102
104
71
81
84
96
71
77
92
102
109
86
92
70
95
95
91
82
76
84
95
70
79
108
82
104
91
103
73
91
71
83
87
78
93
85
74
81
70
95
77
80
96
85
78
75
98
76
104
76
102
92
75
75
96
101
99
70
79
105
71
93
82
89
83
70
85
75
79
76
92
73
97
109
79
101
97
100
102
84
108
108
79
105
83
70
70
84
76
101
108
98
73
104
99
70
80
104
96
104
76
90
74
77
97
95
91
96
77
74
109
104
85
98
78
105
70
89
87
71
93
92
73
73
73
91
97
98
72
83
78
86
95
99
72
83
70
92
107
77
90
101
93
71
93
101
76
86
75
98
75
88
87
98
79
86
70
104
77
102
73
81
70
108
89
103
101
89
86
93
73
108
105
85
86
105
107
87
89
95
76
82
83
71
88
72
77
97
88
109
86
89
77
72
89
106
74
93
98
105
91
74
98
102
88
81
73
103
94
102
76
109
72
105
87
90
98
70
92
107
86
83
93
83
83
97
70
81
83
95
71
75
107
91
104
98
80
106
70
96
88
91
109
95
87
87
102
83
91
75
100
99
106
105
97
77
99
92
78
96
106
91
99
101
72
80
107
72
82
97
100
84
72
78
93
109
73
108
81
98
109
89
108
90
91
105
83
78
93
73
88
79
89
106
86
97
73
104
98
97
76
108
99
99
94
94
84
88
102
87
71
77
103
102
108
79
73
89
90
86
89
103
101
79
94
92
89
87
101
92
94
108
88
83
109
86
74
101
81
86
102
89
89
94
105
83
77
90
109
91
79
85
71
80
101
95
91
104
92
101
86
100
87
81
85
96
71
100
84
89
77
81
81
106
102
92
91
88
103
107
93
76
106
92
71
74
95
103
86
88
70
109
91
104
107
73
90
97
76
102
76
75
103
105
79
90
79
104
84
85
81
107
106
103
82
74
97
86
108
72
81
106
104
78
100
72
109
83
89
71
74
74
98
75
96
101
105
73
100
81
94
90
100
73
76
99
104
104
85
99
75
81
99
87
97
73
81
91
99
103
97
98
73
82
103
96
88
85
101
86
92
71
80
102
79
70
76
87
75
84
100
83
76
82
108
103
90
85
106
99
70
78
90
82
106
86
89
84
94
97
85
106
104
90
83
106
99
80
88
93
92
72
76
92
97
83
108
74
90
106
71
94
77
78
76
79
85
93
106
77
90
82
87
94
103
75
93
94
96
105
98
83
90
92
70
104
88
93
83
79
91
72
72
93
89
82
79
88
97
79
96
100
86
71
77
95
106
73
87
74
77
97
80
73
102
78
107
85
97
71
81
103
74
104
94
87
73
71
99
87
79
100
100
73
103
104
93
72
104
101
97
94
106
70
84
73
80
96
90
83
77
74
70
99
105
89
95
86
102
87
88
98
94
109
103
92
88
94
97
80
106
77
92
81
73
82
108
98
103
106
106
108
76
109
82
104
72
83
76
96
71
105
94
98
87
80
80
77
70
80
88
86
104
107
102
108
87
84
74
83
75
74
77
86
77
104
102
73
86
95
94
78
85
77
101
78
89
88
78
83
84
70
89
91
89
87
73
71
103
101
93
77
93
82
90
99
73
83
72
109
76
92
83
72
96
100
70
88
109
74
107
95
80
96
78
103
101
103
91
106
103
76
101
72
109
97
80
81
95
71
105
107
81
98
85
70
103
109
79
102
75
104
86
105
98
87
70
106
93
109
86
109
87
89
90
100
107
88
97
97
80
107
82
76
78
106
82
80
83
97
90
105
98
105
87
89
100
98
81
99
73
97
72
71
88
85
92
104
93
70
100
90
99
103
81
72
83
107
76
93
99
94
85
73
74
70
94
78
99
98
103
76
73
97
99
74
74
102
91
109
78
107
105
86
89
92
72
79
103
101
74
102
104
70
90
94
85
94
91
74
97
86
88
83
83
103
94
108
92
103
71
92
92
95
88
83
98
81
85
73
91
81
108
99
105
80
87
96
72
81
86
75
78
78
84
89
98
106
73
78
70
77
80
83
79
107
81
90
109
78
98
85
102
93
90
84
87
109
70
102
78
103
95
82
98
106
92
102
108
75
92
72
106
106
86
106
105
78
85
99
82
100
102
92
97
100
76
89
90
100
94
73
101
73
70
79
84
83
102
106
89
81
87
105
85
85
90
83
79
81
90
102
74
97
73
78
99
91
90
97
105
109
71
97
101
94
100
82
84
96
83
100
106
84
90
98
90
94
82
92
76
98
105
99
77
72
82
91
77
92
92
102
109
97
72
78
87
87
71
98
75
105
84
85
103
108
101
108
87
86
95
95
109
99
74
73
75
102
99
75
94
70
106
86
93
87
91
72
75
82
72
104
89
103
87
77
87
82
80
93
76
84
74
82
85
84
94
105
106
85
83
78
87
106
108
82
90
95
95
78
88
81
96
109
85
73
94
84
75
93
83
77
90
104
97
86
98
84
75
107
93
92
98
75
96
94
106
73
83
89
101
105
79
84
85
87
72
87
95
90
91
94
94
86
73
107
78
106
76
82
99
95
74
108
89
91
104
92
77
85
89
70
107
105
95
97
81
86
81
90
108
79
109
91
82
95
80
84
72
88
76
73
85
109
97
99
70
86
80
84
91
92
91
93
90
70
73
106
91
108
81
81
92
74
76
70
93
87
72
83
102
102
74
102
80
100
92
75
90
108
79
108
101
79
106
94
106
72
84
102
82
87
95
92
70
92
78
95
89
95
88
73
90
109
101
99
78
78
72
84
77
100
86
94
84
70
102
74
107
78
81
78
104
96
92
76
76
77
100
76
108
79
73
92
91
85
86
96
78
73
96
93
104
96
100
82
87
89
94
96
78
82
104
81
84
71
96
72
109
77
101
103
80
78
107
95
105
102
76
83
96
77
97
78
89
70
90
102
93
96
99
73
73
74
72
95
78
84
82
96
105
75
74
104
83
94
101
79
108
95
96
94
84
100
78
95
82
95
72
76
96
82
92
75
94
103
106
97
86
103
82
76
96
81
82
109
79
109
71
86
92
106
105
96
90
85
85
81
81
75
101
91
79
104
106
72
75
73
109
85
76
87
82
93
98
77
86
104
91
92
90
75
81
109
96
82
82
95
94
91
80
73
82
108
89
82
76
80
74
103
82
102
80
109
79
98
79
104
101
80
71
99
70
103
83
89
85
98
92
107
74
109
102
75
78
102
72
80
91
81
98
99
72
105
82
97
76
100
80
98
96
102
107
74
106
88
107
94
71
74
88
97
97
79
90
95
73
105
91
106
95
101
83
91
88
96
106
75
71
105
99
106
71
97
87
89
103
88
71
83
71
90
86
81
98
106
94
102
77
70
74
87
95
75
92
104
89
82
89
83
72
107
81
106
73
81
91
79
84
103
88
98
100
73
79
106
70
109
97
96
72
107
85
81
92
84
79
98
108
71
109
80
80
90
99
88
103
70
95
101
98
83
71
89
103
95
105
78
76
89
107
76
106
91
84
86
93
103
107
88
105
72
71
92
79
100
87
77
104
89
107
75
73
70
74
97
87
100
77
75
77
109
76
76
100
75
104
71
107
84
88
108
71
92
104
109
76
99
103
97
77
81
87
89
72
96
75
106
101
81
100
82
73
105
84
86
102
109
95
83
109
99
86
84
71
75
102
84
96
71
97
92
101
95
84
103
95
95
88
83
73
101
108
99
103
109
99
91
79
104
98
84
76
85
101
105
88
102
107
81
90
86
87
93
97
89
80
84
96
77
75
94
98
80
71
86
87
90
105
107
88
84
74
72
79
73
70
83
83
76
78
91
75
90
88
102
80
105
108
73
96
82
99
89
80
99
108
106
90
95
103
102
80
98
85
104
95
72
71
106
103
109
94
107
82
98
107
77
91
95
105
70
82
92
87
101
109
93
106
80
80
101
83
76
104
73
93
84
76
88
89
93
109
82
85
98
80
79
106
107
74
89
85
75
76
93
97
74
102
86
99
88
104
98
86
84
71
81
104
92
93
107
77
109
109
106
74
102
101
88
108
96
76
105
98
88
94
84
104
72
86
70
102
90
83
80
89
87
102
99
104
96
107
73
73
83
94
109
77
95
104
85
73
83
90
95
103
100
73
90
84
86
91
78
99
102
105
87
98
101
85
86
92
87
85
96
103
84
73
75
70
95
106
71
97
102
99
97
91
81
109
70
85
94
77
93
74
107
80
109
75
86
91
82
83
98
100
74
109
75
101
109
77
84
106
76
92
79
96
97
96
85
89
96
91
94
85
76
91
75
91
108
90
82
96
79
95
89
79
95
101
79
91
74
98
88
89
102
74
103
73
94
93
89
93
96
71
87
75
74
94
76
88
92
81
80
78
86
87
84
87
101
102
87
82
83
77
81
102
77
84
70
93
89
74
101
107
95
79
73
102
95
99
71
104
91
87
105
82
103
75
83
92
94
103
92
75
78
78
104
90
88
80
107
100
81
103
88
96
76
108
91
86
91
107
100
82
83
100
93
79
88
91
109
77
105
74
78
77
94
78
76
84
79
87
104
79
102
92
107
95
79
86
103
101
95
92
74
87
75
104
100
91
91
87
108
99
103
70
77
89
88
91
71
77
90
74
107
102
104
89
87
86
97
94
107
73
106
79
99
70
100
91
102
102
87
79
78
109
79
83
81
87
94
102
71
93
74
95
77
72
88
78
74
93
73
98
88
106
84
109
101
72
109
101
74
81
108
99
84
100
81
97
105
86
103
88
85
83
78
88
70
70
109
91
100
109
103
100
94
73
70
108
97
108
70
78
82
108
75
100
101
103
85
80
103
95
83
103
81
104
86
99
86
103
72
89
71
94
100
83
100
85
71
70
79
99
103
94
76
94
99
72
83
79
84
72
81
73
83
109
75
75
83
82
76
76
71
78
90
87
103
70
76
87
95
73
78
101
89
109
97
71
85
104
92
75
93
81
79
77
78
96
106
77
108
84
90
101
84
100
100
89
80
79
84
87
95
95
80
105
91
107
80
73
95
101
97
84
97
92
99
98
108
106
96
86
81
72
94
89
95
81
78
75
80
85
85
76
102
71
75
96
102
80
107
82
75
101
98
90
86
103
92
89
85
74
107
85
98
80
73
104
102
87
88
86
70
80
79
79
92
105
80
89
88
77
80
82
105
106
95
92
94
83
73
90
106
104
84
74
96
75
107
76
75
108
105
73
98
104
90
87
89
76
79
109
83
80
104
98
79
74
80
83
97
97
99
100
90
100
83
102
74
73
75
82
101
90
107
77
100
77
70
85
102
98
96
91
87
83
91
97
95
71
100
70
109
103
98
88
70
86
95
97
105
98
99
93
77
88
76
98
85
95
106
81
99
90
106
76
74
100
97
73
88
72
92
86
76
79
94
101
85
78
82
90
76
94
81
74
82
101
93
71
84
70
87
106
94
76
95
88
70
101
74
95
99
101
80
74
70
80
94
108
87
100
90
90
83
109
102
84
108
99
102
109
106
74
85
88
73
89
77
94
98
93
77
101
103
94
96
107
105
73
108
92
92
72
104
80
86
96
98
89
92
73
71
83
77
99
76
76
75
87
77
70
95
75
84
107
92
107
92
105
103
108
102
70
85
74
92
109
102
101
76
89
81
95
96
82
95
81
75
86
100
87
94
90
92
89
85
105
98
84
107
75
87
96
101
105
81
106
85
97
106
109
94
86
107
77
96
89
80
109
108
77
85
81
74
103
81
70
80
85
74
81
71
82
82
77
97
103
89
81
77
99
90
105
70
93
82
107
88
89
103
93
109
98
85
78
71
88
79
90
103
106
91
90
78
101
103
99
105
101
107
93
90
91
103
71
93
80
87
73
80
82
84
83
95
101
100
100
95
83
84
77
81
70
86
87
81
109
102
82
79
93
81
88
93
82
80
97
83
95
105
104
104
75
79
93
74
92
75
93
72
96
99
87
109
89
106
80
95
73
95
98
73
103
99
96
102
96
101
101
96
90
96
86
104
100
97
109
102
98
73
71
90
88
97
72
84
77
95
70
90
90
75
91
80
82
79
71
109
85
79
101
75
88
109
76
71
79
80
74
82
77
102
92
87
91
96
72
86
95
93
71
96
71
73
77
76
87
103
99
106
95
101
72
78
105
87
107
86
89
79
83
87
94
75
106
102
88
95
88
99
74
109
100
74
81
82
81
85
78
107
78
108
105
79
85
87
102
87
81
77
109
75
106
93
92
87
91
94
95
78
86
74
99
94
78
72
104
92
93
82
78
97
95
76
89
70
86
87
71
83
96
76
104
94
70
76
96
82
102
80
82
70
91
85
93
80
91
90
91
97
90
93
87
107
94
98
103
97
82
85
91
93
70
91
93
95
87
76
89
101
91
100
71
70
72
74
102
100
85
80
83
73
97
76
74
88
91
86
100
104
89
99
91
84
93
73
82
103
109
93
72
87
74
73
86
86
83
106
70
105
99
81
87
74
104
96
79
97
94
95
88
99
107
71
102
81
108
88
79
101
96
94
76
104
75
81
80
87
78
85
78
95
109
86
104
86
97
88
109
93
87
71
82
91
80
91
109
99
74
70
86
73
80
88
70
80
86
82
84
88
80
74
94
102
90
87
93
101
90
70
101
100
86
108
91
87
96
85
71
82
81
84
108
83
109
83
86
88
83
77
99
89
88
91
77
95
84
84
79
85
93
80
70
78
107
103
90
80
84
109
93
95
80
74
92
84
71
103
75
71
82
90
77
91
72
86
108
73
106
101
70
96
105
104
105
100
94
80
72
108
106
93
79
97
71
79
83
99
71
76
102
93
91
97
97
109
95
108
106
109
108
97
89
101
86
92
94
93
95
79
101
85
91
84
92
96
102
84
108
80
91
73
78
107
79
74
104
103
77
101
96
106
82
90
81
109
108
108
76
81
95
91
80
75
88
97
77
92
85
82
77
76
100
103
100
80
100
108
97
73
106
73
86
72
92
70
109
95
75
98
107
81
76
70
82
76
87
77
73
86
101
103
86
102
83
78
71
85
92
96
93
92
94
87
83
79
75
70
86
91
91
93
92
92
96
86
106
106
82
88
73
101
84
83
104
86
95
102
88
72
101
78
108
79
105
80
79
88
109
73
91
89
76
84
71
82
81
92
72
101
103
90
76
97
99
88
75
109
71
103
87
75
73
86
85
91
83
100
107
90
107
97
77
90
78
72
75
92
73
103
70
83
88
82
75
83
74
109
86
90
77
104
75
78
86
104
104
103
84
83
79
109
86
92
83
85
105
89
97
73
86
89
98
94
92
97
101
82
98
81
90
77
96
91
108
95
78
75
95
75
84
101
82
82
92
107
78
75
109
78
81
89
90
96
92
93
74
72
99
78
89
109
70
87
95
102
99
96
80
105
103
79
84
106
77
88
95
102
78
106
75
97
90
101
84
85
77
97
76
77
109
104
81
89
75
103
108
82
104
96
83
104
82
76
82
97
96
79
101
77
90
85
97
80
108
76
76
104
101
81
105
104
82
87
104
84
72
109
70
102
83
104
73
97
80
105
103
83
98
72
96
104
91
73
80
84
72
102
98
105
107
93
89
75
107
83
96
104
86
89
77
108
90
71
73
91
89
86
100
96
107
74
70
70
104
80
105
85
78
99
85
104
87
109
108
108
79
101
72
91
101
76
81
74
104
85
99
80
92
108
79
80
84
77
89
72
74
89
99
99
93
84
72
92
107
74
90
101
103
108
80
94
92
109
106
105
107
82
71
78
89
82
106
107
109
74
80
86
104
100
93
94
94
72
104
70
92
75
76
108
99
96
88
89
108
77
72
73
75
87
109
102
97
72
108
96
109
72
107
80
75
81
81
85
88
104
70
70
109
105
88
97
106
106
79
92
84
75
76
74
90
107
94
96
108
87
76
88
101
79
74
70
99
73
86
73
108
91
98
92
76
75
103
78
76
88
95
71
77
95
76
84
93
95
88
108
97
86
84
99
84
79
77
71
95
108
84
82
82
89
84
96
97
73
81
105
98
101
79
73
70
81
105
78
95
105
76
74
97
93
83
97
91
105
84
77
104
88
82
72
89
98
85
73
85
99
95
100
108
94
80
107
80
90
76
89
77
83
75
81
91
92
97
106
82
108
103
70
101
95
90
83
73
87
99
89
96
74
103
109
105
77
80
101
75
89
75
109
90
93
91
74
80
76
94
101
104
97
94
91
87
96
107
82
83
79
71
94
73
77
91
93
74
105
104
95
102
102
96
98
100
101
93
93
95
92
90
92
77
94
82
99
85
108
85
86
103
74
90
89
73
100
105
107
78
106
96
105
105
74
97
88
83
109
74
74
74
77
77
93
106
78
97
72
104
105
81
80
100
89
91
98
71
88
99
97
94
81
73
82
94
100
80
102
80
93
97
97
86
77
104
81
79
86
108
80
95
97
85
77
83
107
97
104
76
95
104
77
74
101
105
83
106
84
92
102
91
83
81
89
77
103
73
104
91
80
108
84
83
108
106
72
100
72
102
92
103
84
72
88
81
102
89
92
80
98
109
70
75
73
76
107
87
96
89
81
95
107
79
92
100
97
72
104
86
104
97
95
73
108
98
74
75
85
82
85
93
79
83
79
73
103
97
103
99
74
88
77
107
71
87
104
89
88
104
84
97
92
98
95
106
105
88
83
98
89
91
86
92
74
77
104
108
99
104
85
90
84
87
85
86
77
106
104
91
105
80
101
78
92
72
108
81
74
81
75
107
98
75
94
83
108
85
75
101
87
105
101
99
86
84
71
96
83
98
107
73
77
98
107
93
86
77
80
95
80
109
73
105
73
100
71
106
92
90
70
75
106
76
94
95
97
81
83
74
108
70
90
76
99
108
86
85
108
104
105
99
74
108
78
73
109
101
87
91
74
85
90
87
93
73
82
86
92
109
91
76
109
94
101
107
75
88
85
95
77
106
89
94
80
103
74
94
102
70
103
83
86
100
71
89
70
88
87
103
71
71
85
93
72
82
92
103
93
77
82
74
98
81
86
79
82
100
101
78
85
87
103
109
81
88
109
96
87
81
78
107
106
73
75
78
84
90
79
72
82
91
107
103
89
78
73
79
81
92
103
105
96
96
78
86
74
97
108
77
88
76
87
97
94
90
83
86
90
70
109
85
106
81
89
70
100
73
97
85
108
87
79
105
90
89
102
89
74
80
91
87
104
90
105
82
91
82
86
102
105
94
80
71
107
81
108
94
107
82
104
74
99
86
79
91
88
82
77
100
71
99
99
71
95
105
86
77
79
97
107
93
73
98
70
109
103
106
83
71
92
106
100
102
79
87
109
98
108
83
108
71
91
100
84
84
77
90
100
91
84
87
76
92
98
74
96
104
109
108
80
107
97
103
94
104
79
84
90
75
109
100
75
75
102
105
94
79
107
102
100
75
97
84
87
91
93
102
101
87
102
87
89
79
82
91
102
89
91
99
109
81
91
77
73
104
70
108
105
88
96
107
78
78
103
104
109
73
105
71
87
107
104
99
71
70
101
76
92
96
84
78
88
98
103
71
80
77
93
91
76
94
108
83
105
92
100
83
86
79
102
99
92
83
101
97
74
93
92
92
103
70
73
108
105
70
72
88
86
83
82
104
73
73
88
77
71
108
106
77
98
100
77
107
77
96
109
71
98
71
79
82
73
82
90
85
81
78
78
82
108
89
78
82
102
91
106
80
94
79
97
87
72
73
101
72
90
82
95
102
94
98
76
86
72
77
72
72
96
106
74
91
90
104
72
73
92
89
85
94
79
84
96
71
106
109
78
96
75
88
75
79
104
70
77
79
77
79
73
79
102
81
99
101
87
71
96
77
75
94
86
94
90
76
71
102
78
73
73
77
88
91
73
96
86
100
97
71
88
103
104
89
107
76
89
94
77
79
79
70
82
72
71
72
95
70
94
77
109
85
101
102
72
82
106
91
73
76
89
101
96
102
98
78
94
106
109
80
74
72
107
92
90
87
95
100
93
107
102
106
103
96
106
83
108
78
77
94
96
85
84
105
71
99
89
70
96
92
102
74
95
81
79
71
92
100
87
90
86
91
77
71
83
75
73
75
108
102
90
75
77
104
82
99
91
95
108
74
73
97
76
76
108
99
104
71
102
87
70
106
104
101
102
99
99
101
105
88
104
75
90
89
70
100
99
92
101
81
83
88
89
90
72
86
89
109
104
92
96
87
92
76
84
89
78
78
101
71
74
73
88
109
107
87
85
106
104
82
77
74
79
73
104
103
72
80
94
80
86
95
100
76
73
89
73
81
71
79
106
72
100
86
91
91
104
87
96
98
88
102
83
98
103
93
85
71
103
90
82
91
98
78
96
104
102
103
89
98
88
88
98
89
80
103
99
94
86
96
95
99
99
104
70
104
76
101
90
107
106
100
70
103
93
98
94
81
82
87
106
87
74
80
85
81
93
76
70
93
79
82
108
70
90
73
71
92
108
71
77
74
99
70
98
92
102
108
76
95
85
98
102
93
76
79
90
97
76
94
85
89
106
77
85
82
84
103
86
79
105
93
86
109
81
96
94
97
77
82
90
107
104
86
75
71
86
93
75
73
75
99
87
105
80
89
84
95
97
84
91
89
75
101
95
107
84
83
106
70
83
102
106
100
74
101
73
107
88
74
102
88
84
84
102
86
87
86
95
71
90
102
86
105
88
81
87
93
93
77
93
108
87
95
107
107
91
85
82
82
83
71
100
87
87
106
104
79
106
92
87
88
94
71
95
80
98
72
77
98
107
95
96
107
89
92
100
96
92
104
93
83
86
106
76
109
90
99
86
77
78
84
83
98
85
102
101
78
72
106
106
99
94
74
83
107
106
95
86
106
76
101
73
86
74
92
88
91
71
105
96
104
109
108
109
94
80
99
89
98
91
70
86
72
103
84
86
82
88
79
81
90
91
84
71
77
109
78
94
104
78
90
86
87
78
93
99
99
70
93
91
100
74
78
89
80
77
71
105
83
70
100
93
79
105
93
87
109
81
70
103
93
109
88
96
91
81
96
102
99
79
78
83
93
85
81
83
100
104
90
99
108
81
102
81
106
95
95
88
89
102
85
91
98
78
81
85
83
87
75
70
75
83
109
81
109
84
87
91
75
89
84
102
109
75
77
95
83
84
84
108
87
74
76
90
70
105
95
86
104
87
96
75
101
91
74
108
91
72
96
74
78
95
103
72
104
91
105
93
105
89
92
105
87
87
82
108
97
100
105
91
81
81
86
109
81
86
77
109
96
80
85
104
109
90
106
74
98
98
106
84
76
93
85
80
98
109
78
96
93
73
79
92
79
94
108
91
95
101
103
92
83
77
92
93
71
106
77
108
109
78
97
99
101
96
88
73
80
90
82
71
95
103
105
89
98
77
108
78
70
87
102
81
101
78
86
105
100
104
72
85
105
81
108
108
100
98
101
108
104
80
85
98
74
103
87
105
81
86
93
70
86
100
83
84
70
99
75
91
77
91
91
71
78
83
76
101
96
108
92
73
99
102
79
102
92
96
73
86
101
105
95
83
104
76
102
84
77
100
108
76
82
76
86
88
83
74
74
80
106
77
94
79
88
93
72
78
85
90
71
70
93
95
98
77
100
88
72
83
106
82
103
92
90
82
97
97
80
80
108
75
74
109
105
71
80
92
96
105
78
77
105
74
98
71
70
107
97
71
79
95
79
84
94
75
94
101
92
74
102
109
100
87
102
85
95
81
99
107
103
86
71
90
72
81
99
74
83
78
96
81
101
89
73
98
95
105
85
93
80
90
93
87
80
107
81
92
94
101
72
106
77
70
71
96
90
85
105
71
81
94
96
95
96
80
91
93
92
102
72
75
75
75
108
72
98
81
97
106
96
75
79
74
106
73
95
71
80
100
75
70
80
107
74
88
106
70
107
83
108
97
103
94
79
107
100
88
105
87
87
72
84
74
105
74
86
95
86
72
75
71
98
87
104
109
109
84
82
105
89
71
95
75
105
102
106
83
84
101
101
70
82
109
81
84
70
74
98
79
109
98
105
102
94
91
106
107
106
92
87
74
94
94
100
84
102
92
78
91
101
73
93
94
99
81
97
79
85
107
92
99
107
101
108
89
86
105
108
103
105
70
99
97
97
74
77
108
104
71
105
82
102
99
83
79
97
109
99
92
71
92
78
89
105
90
98
80
91
105
72
87
73
77
101
94
84
106
97
90
92
87
93
74
96
76
94
80
101
72
71
106
76
109
70
98
71
88
77
106
76
108
100
92
90
102
77
105
84
79
96
104
101
93
81
105
107
83
78
83
78
90
109
99
107
95
86
86
108
79
100
96
90
105
74
78
78
91
91
97
91
72
91
100
81
72
84
88
78
72
99
70
93
99
109
85
92
73
100
84
72
96
71
98
100
72
96
108
106
91
79
103
89
109
96
87
88
104
72
71
90
107
78
74
90
100
87
81
96
107
74
78
77
105
102
96
107
82
88
104
97
71
81
91
86
102
72
73
99
109
76
70
86
101
101
95
92
84
107
79
95
86
95
90
96
77
97
90
103
78
73
88
81
85
74
77
81
108
91
106
106
80
80
85
107
109
97
92
100
83
98
79
72
97
74
81
100
105
72
103
95
100
107
93
106
95
72
77
74
102
106
89
76
104
84
91
80
107
99
75
105
74
90
97
100
76
77
91
71
79
83
89
84
84
78
103
101
93
76
107
82
92
99
87
97
78
80
97
86
104
89
98
108
88
84
76
82
88
87
87
105
94
82
70
109
87
106
101
82
70
71
86
73
103
95
76
107
105
108
71
93
75
92
98
108
70
73
89
99
91
72
87
75
95
77
79
75
92
79
89
96
106
103
87
102
78
103
104
103
81
105
101
76
84
85
91
74
98
87
88
102
80
88
89
109
96
92
91
101
100
109
73
88
81
70
102
74
105
90
91
88
78
93
99
91
108
75
92
70
102
80
73
100
84
103
94
102
107
88
108
100
78
92
86
73
83
98
75
92
97
87
76
76
105
81
80
75
90
109
71
87
90
90
84
101
105
102
94
70
104
103
88
79
106
100
96
84
105
93
77
109
85
96
77
99
105
78
85
100
94
93
74
77
100
103
96
72
70
75
105
71
109
82
80
79
104
93
95
104
75
102
85
108
85
100
108
94
102
90
74
101
73
106
78
97
70
86
78
70
91
95
87
87
108
106
76
84
81
88
98
94
95
100
100
98
90
83
106
109
81
95
79
87
74
84
91
107
103
103
102
102
97
91
103
102
109
109
76
85
108
83
90
94
79
105
88
103
98
92
95
95
73
91
108
74
73
91
73
75
72
105
104
81
95
85
74
77
70
101
88
83
81
71
72
95
90
92
81
90
88
97
82
109
94
96
80
77
94
103
71
87
88
70
76
102
85
103
80
75
105
97
95
109
81
85
106
73
97
77
97
107
73
105
93
94
81
93
101
88
90
80
95
98
95
93
106
86
84
79
89
106
101
97
98
100
83
100
88
70
75
76
86
92
87
77
94
83
81
73
89
84
100
94
95
74
93
102
73
97
75
87
109
71
75
92
89
103
79
99
76
99
88
73
90
90
81
99
102
75
70
102
77
105
85
105
96
87
91
97
82
94
90
101
83
76
82
76
108
79
78
92
100
99
80
108
91
88
71
100
77
87
80
75
97
94
75
105
74
75
96
103
109
109
82
107
76
81
82
104
91
100
95
70
81
92
100
102
74
100
90
80
82
103
104
72
100
100
80
102
84
83
101
86
90
80
106
80
72
109
108
80
85
93
106
80
75
94
107
93
86
70
105
104
71
82
109
109
80
107
76
81
80
98
88
87
72
84
98
108
71
73
102
100
108
90
103
76
74
98
86
106
97
71
101
82
74
105
104
90
99
106
94
80
100
85
75
107
89
100
90
71
105
101
75
76
70
109
79
81
78
104
99
94
89
103
108
95
108
107
80
104
102
81
78
109
89
79
94
88
83
94
107
81
109
80
96
89
84
107
89
103
86
87
100
103
71
109
104
104
85
73
109
77
81
105
76
78
103
102
95
96
95
90
84
90
85
82
87
97
77
79
102
86
100
104
89
71
91
98
73
84
109
90
103
82
99
98
80
101
70
106
104
73
101
73
102
74
95
101
79
77
99
103
109
71
94
106
80
108
109
77
109
98
75
71
87
87
102
91
99
73
77
84
73
93
108
99
104
105
76
94
96
94
108
99
102
104
101
70
107
104
108
95
94
76
89
71
100
93
72
101
101
97
109
76
96
106
86
95
90
95
107
96
75
74
105
76
81
82
80
75
97
89
82
71
75
73
85
100
94
106
98
87
84
103
86
81
95
90
97
78
92
101
78
104
95
75
98
82
95
93
73
106
107
89
85
70
101
89
96
99
78
80
92
106
90
90
104
108
101
92
102
87
71
73
83
97
108
87
71
84
87
98
86
91
96
71
70
76
75
107
82
70
75
109
109
85
70
98
75
84
107
80
77
99
90
77
84
89
83
72
72
75
81
87
96
101
72
107
93
96
109
81
106
93
77
75
79
97
73
79
95
74
104
86
86
105
101
71
87
72
83
92
92
94
86
102
71
105
76
101
97
99
75
82
98
103
93
97
72
70
90
97
83
109
108
78
96
74
89
105
100
87
92
85
100
70
101
109
83
70
90
77
100
92
78
71
88
101
82
71
89
83
89
96
96
78
104
72
109
102
93
81
85
102
102
82
104
98
94
94
83
101
85
83
84
92
77
102
101
103
84
108
106
73
78
84
78
109
98
92
75
84
97
105
80
108
82
75
88
83
98
96
97
109
106
95
106
82
105
104
97
84
91
106
107
87
98
101
77
73
100
74
75
84
70
80
79
90
72
72
92
81
104
90
91
103
83
105
102
71
81
109
99
108
104
72
84
70
84
84
92
83
78
98
76
79
82
70
96
87
70
81
91
75
104
102
74
82
103
74
80
98
77
70
101
80
82
86
100
77
92
95
93
106
71
101
88
109
96
98
76
92
94
70
95
73
82
107
86
95
70
72
103
93
77
81
85
72
82
109
76
101
91
88
86
79
103
105
93
70
77
70
106
73
71
87
70
85
79
89
103
78
73
76
92
77
98
95
76
107
95
91
108
86
88
77
104
105
94
103
93
80
107
81
92
93
81
92
105
76
102
72
92
78
95
71
79
100
75
81
106
106
97
97
108
71
83
80
107
89
77
80
102
102
73
91
72
72
101
70
87
105
88
104
86
80
104
95
88
74
72
78
71
108
72
103
92
72
85
103
79
71
99
98
88
102
72
77
79
107
82
99
90
74
100
105
93
99
101
78
71
86
73
85
74
90
77
94
99
82
101
84
107
82
96
79
101
80
70
109
105
78
89
92
80
79
90
100
73
88
93
99
92
89
71
96
101
76
79
92
98
109
99
78
72
74
101
70
108
86
70
100
94
80
96
98
106
73
98
87
106
78
72
77
94
83
82
102
94
89
86
82
73
80
104
92
87
97
96
71
76
93
109
98
93
90
97
91
80
72
109
83
79
102
71
94
78
99
96
79
102
106
75
81
80
92
83
104
93
108
84
105
86
88
109
104
104
92
92
89
90
83
90
81
98
72
73
109
84
97
83
91
100
102
101
80
71
105
92
89
85
94
86
94
98
84
85
108
93
93
87
82
80
99
73
87
81
75
78
90
80
78
82
89
74
93
76
102
77
70
75
95
78
85
80
85
80
108
77
96
77
101
100
96
97
79
91
79
109
72
78
85
106
90
86
92
78
81
97
85
100
83
97
98
103
73
89
102
71
102
102
82
88
101
90
74
94
72
79
87
94
86
98
78
105
100
78
89
82
80
82
108
98
105
85
98
105
75
82
97
104
106
87
76
93
77
106
80
103
77
85
81
99
102
81
85
70
93
90
105
100
98
90
99
104
72
80
71
100
83
90
86
108
73
88
101
94
84
99
106
76
79
94
107
86
87
84
82
81
76
90
84
93
80
78
98
102
103
73
106
72
104
97
94
72
91
81
100
97
83
101
96
85
86
89
103
77
74
81
101
82
74
95
90
84
74
72
89
83
71
80
81
77
74
87
71
71
79
99
75
79
97
72
98
81
73
94
92
73
70
75
95
97
71
96
84
75
79
87
96
81
104
93
101
98
91
93
74
104
78
94
81
104
95
93
96
98
80
94
74
90
92
87
94
77
106
101
72
72
71
92
103
86
80
89
95
104
89
74
95
74
103
72
86
76
101
75
82
78
77
87
105
79
84
95
91
96
83
95
104
84
100
109
102
83
98
75
101
87
100
78
79
102
91
91
106
74
90
83
96
86
101
84
89
98
93
90
87
72
84
77
74
79
99
93
85
104
84
107
81
79
101
90
96
100
98
94
109
83
102
108
98
105
107
90
74
105
80
96
72
94
98
103
104
89
87
89
108
76
103
106
97
72
83
93
76
92
75
81
71
72
82
78
73
81
101
107
76
109
76
106
104
105
104
86
80
97
94
91
100
81
74
103
87
105
87
87
74
70
78
77
80
102
78
89
107
84
75
78
79
102
90
103
78
99
107
97
108
72
96
90
107
85
86
106
82
84
81
73
97
97
100
73
81
80
105
78
105
91
70
91
92
92
97
87
97
82
70
104
99
87
102
70
91
81
74
91
82
79
80
106
99
79
93
102
104
85
108
84
108
70
70
99
97
70
74
82
83
103
95
76
109
76
88
72
90
85
79
99
95
75
77
98
71
78
96
98
70
100
87
99
74
101
82
109
103
77
109
105
107
90
86
75
82
87
109
87
82
72
76
97
72
95
95
105
85
79
78
79
100
102
88
92
85
72
83
89
103
73
105
91
89
83
100
104
82
74
70
91
97
108
82
70
87
101
95
96
77
105
70
93
88
91
90
78
84
70
96
88
95
90
95
105
93
74
81
104
109
75
74
77
97
79
97
97
91
99
109
78
87
94
97
82
92
83
107
97
103
88
106
105
81
72
102
98
95
70
108
93
83
84
74
107
105
82
88
82
101
82
104
76
107
108
71
104
86
70
84
93
93
86
96
76
92
75
79
70
79
72
86
86
100
83
101
104
73
93
96
97
91
74
72
97
81
84
71
103
80
99
84
107
88
80
99
106
95
106
105
77
77
73
103
107
72
104
84
105
89
80
104
103
94
83
70
77
89
86
98
93
81
83
100
82
79
86
75
106
100
86
93
96
73
102
77
77
95
77
87
104
89
91
89
91
94
109
82
96
107
74
103
108
105
70
83
107
106
103
103
76
82
79
98
70
76
90
83
107
106
81
77
108
97
109
74
102
100
71
99
75
103
104
79
99
103
84
106
101
73
77
103
73
97
85
82
88
100
100
71
102
95
91
71
94
105
87
76
86
78
74
74
85
102
87
81
83
109
101
96
96
92
78
85
103
73
72
90
100
106
91
74
76
72
108
84
84
105
81
94
109
86
86
71
78
102
96
86
99
90
104
94
108
100
83
102
81
82
87
108
92
79
88
83
103
99
92
85
97
81
91
74
75
90
99
72
87
81
107
77
107
94
95
108
106
71
99
85
84
84
84
72
88
73
83
74
95
98
99
89
74
98
85
101
78
108
105
72
79
101
88
103
91
90
88
105
73
70
80
96
74
95
77
77
78
90
100
73
98
99
80
89
89
106
70
81
88
98
87
109
70
92
95
92
92
100
100
70
89
90
80
71
106
99
98
76
104
81
90
102
98
72
84
109
93
106
79
70
72
102
95
88
93
85
87
83
85
85
99
98
75
97
84
83
76
104
77
101
85
85
87
73
102
72
104
92
94
99
80
107
95
103
103
104
99
95
105
101
87
109
92
94
86
93
108
76
105
95
85
103
94
88
105
107
87
83
105
94
109
75
73
105
84
93
104
78
88
108
85
81
72
101
97
73
90
84
72
89
72
86
81
82
106
105
89
92
108
73
82
92
81
76
90
80
87
80
81
97
109
75
107
80
98
83
104
84
80
96
80
107
90
95
106
79
89
96
102
91
77
98
106
102
90
101
91
95
97
88
108
98
72
84
83
89
77
89
90
103
103
87
91
73
77
104
104
86
76
93
90
80
82
86
96
75
88
101
75
94
96
109
87
96
76
71
101
93
71
85
86
105
71
75
74
92
91
83
75
94
89
80
99
77
84
93
85
76
84
70
75
94
94
71
76
76
78
92
88
84
98
105
78
75
89
83
85
99
83
102
90
96
99
97
91
87
98
87
97
73
70
71
75
71
91
86
88
94
96
107
101
93
101
92
81
76
100
103
92
103
94
91
71
91
71
80
104
89
77
84
100
89
100
80
83
96
78
90
86
109
89
92
76
96
97
101
78
101
88
71
79
88
107
81
72
72
79
109
75
105
83
92
70
92
104
97
74
90
103
76
77
106
97
96
85
87
85
70
94
93
101
99
109
109
90
80
94
87
82
96
75
87
95
96
86
83
81
98
90
108
94
98
76
84
105
93
71
103
73
86
97
101
76
99
104
70
84
72
73
103
72
74
98
100
70
94
78
70
80
75
73
87
92
77
109
76
72
100
76
99
70
77
102
76
92
87
86
77
80
80
88
88
106
105
86
96
82
88
92
108
91
100
88
107
80
94
102
89
95
86
90
73
91
107
95
107
78
95
80
79
94
99
77
107
103
87
88
74
74
100
97
94
100
77
87
79
98
107
79
100
108
97
106
81
72
96
90
82
88
84
109
71
94
78
102
88
95
106
72
107
78
84
92
83
75
103
85
76
75
102
82
101
97
79
108
76
93
92
80
96
109
108
79
99
105
82
100
102
75
84
94
90
70
94
79
108
103
72
84
89
74
70
94
83
102
78
87
82
75
79
105
78
98
80
100
75
86
103
71
94
82
107
73
72
99
108
96
105
80
81
82
103
79
98
74
94
89
104
77
90
105
74
109
91
89
81
101
96
77
85
95
88
84
81
99
92
77
93
72
73
70
107
80
109
99
84
79
87
108
108
84
84
79
107
84
72
105
77
74
82
79
77
91
75
106
109
98
95
74
81
71
77
74
77
78
92
84
107
85
70
102
90
109
74
78
107
101
100
106
70
107
88
91
77
93
71
75
95
71
97
92
72
109
92
91
94
76
91
93
87
76
91
72
105
96
90
77
99
97
72
109
106
72
91
82
70
99
93
95
87
98
89
90
98
82
102
97
72
73
99
107
96
83
92
81
75
93
108
108
105
104
76
80
75
88
74
106
105
102
93
70
93
106
88
109
103
85
93
76
82
94
92
88
70
91
76
73
103
91
89
76
71
106
87
94
88
100
70
77
108
93
94
105
73
89
85
84
87
87
95
101
75
75
101
107
81
109
73
104
93
100
88
100
91
78
97
108
81
76
94
90
105
82
89
87
99
93
81
95
74
104
92
76
85
96
71
93
97
103
107
71
86
70
82
92
79
94
84
108
102
72
99
98
95
75
77
73
83
103
75
102
104
80
101
71
103
109
81
108
87
73
84
93
72
90
87
93
82
88
77
85
71
104
93
84
86
82
99
70
81
87
100
98
89
79
106
80
81
106
84
98
81
93
73
99
76
104
94
94
100
77
79
96
108
99
99
96
77
77
75
78
77
77
83
74
102
84
82
70
91
70
79
87
80
89
85
95
98
71
88
95
109
85
72
92
85
107
93
103
102
100
92
89
72
104
81
94
85
97
101
98
93
82
83
97
77
87
93
75
83
96
100
72
101
80
104
105
98
86
77
72
96
89
86
104
104
81
102
95
104
92
85
90
79
70
95
90
86
93
92
95
109
100
75
98
76
85
104
103
91
101
104
83
91
75
107
106
103
72
81
108
85
102
95
72
82
82
92
98
85
100
96
73
90
105
109
100
98
70
72
103
80
95
73
88
79
73
104
79
91
85
83
85
70
102
102
92
100
78
98
95
80
91
105
107
96
80
73
95
87
89
95
96
98
86
70
88
85
76
80
88
86
88
91
83
105
86
72
93
86
105
72
91
81
108
72
93
81
104
95
98
107
71
86
106
79
72
87
106
91
92
88
92
78
89
98
109
96
100
77
91
73
84
103
86
79
101
109
85
75
107
104
101
86
71
92
70
88
102
109
79
74
80
99
107
109
95
80
107
82
97
70
78
107
103
78
70
98
95
71
93
88
95
76
96
72
91
98
99
70
80
88
109
82
82
71
109
74
99
92
85
71
93
83
79
94
106
78
93
97
82
71
108
103
77
74
108
90
73
87
73
79
102
87
86
108
80
76
91
77
85
78
100
87
96
107
109
72
101
103
90
78
78
84
99
72
85
107
96
106
82
100
89
109
80
75
98
102
91
91
77
86
77
95
104
82
90
79
88
91
88
104
78
72
82
79
97
83
95
95
92
98
102
73
106
71
85
83
87
74
91
108
81
77
91
95
71
80
90
78
96
94
98
81
88
103
80
87
78
88
98
93
89
88
85
109
84
101
78
80
103
102
88
102
73
74
70
101
99
97
105
73
102
88
84
91
88
99
86
109
99
79
87
101
94
78
87
104
96
94
83
73
74
100
106
82
76
85
71
82
75
101
71
79
89
75
78
102
70
93
77
105
102
104
79
104
107
91
91
83
109
92
108
79
78
107
104
71
74
94
70
93
87
92
108
73
82
86
80
81
83
75
85
90
81
107
87
78
73
70
75
86
83
78
97
74
93
82
107
78
84
77
91
79
96
70
88
79
72
81
73
93
78
102
85
105
100
88
90
102
71
105
101
89
90
108
81
73
94
83
107
103
97
98
102
72
109
108
74
80
75
76
91
73
79
103
103
109
94
104
103
105
85
83
105
98
75
70
78
100
74
77
80
73
90
78
78
95
87
100
91
93
107
87
76
94
71
92
97
95
87
97
93
86
83
92
73
76
85
92
94
101
104
104
106
76
101
103
109
92
92
88
100
93
97
91
109
100
77
70
100
102
71
101
85
70
98
76
84
109
105
87
106
73
88
92
88
98
76
87
89
80
86
86
98
97
84
94
78
90
73
70
80
107
71
98
103
72
81
75
81
70
101
93
97
83
98
105
83
104
103
100
107
83
100
96
104
80
77
81
94
89
100
83
92
78
78
74
75
86
97
105
81
70
75
87
93
97
103
95
75
89
76
96
90
76
95
92
109
107
106
92
71
104
101
92
106
70
84
99
89
85
89
102
84
101
83
94
76
75
78
79
88
106
85
73
80
100
94
84
72
82
93
80
95
104
92
75
88
91
98
79
96
95
73
75
106
93
100
80
71
98
80
71
98
86
90
105
99
91
81
87
82
84
86
99
79
88
90
71
95
95
94
77
98
84
97
78
82
84
77
103
102
94
107
72
97
83
81
95
100
104
81
93
83
105
83
79
71
73
86
96
95
103
91
100
93
83
90
88
94
106
105
73
89
86
105
99
84
105
76
99
91
107
109
102
91
98
94
74
103
106
104
70
88
70
78
78
82
101
107
74
108
80
101
80
72
91
106
78
84
105
74
100
72
101
77
90
81
71
95
78
94
100
72
89
89
106
105
82
88
81
84
98
85
109
83
90
90
76
100
74
73
99
76
92
83
70
105
97
71
71
100
98
77
71
79
73
84
83
99
72
81
96
70
98
81
74
91
97
88
82
89
72
99
86
73
82
83
77
90
91
75
107
95
102
100
82
108
78
103
82
109
72
83
106
96
81
87
103
99
76
82
92
105
79
105
91
97
103
74
75
79
80
94
107
95
97
99
85
104
72
83
79
86
74
71
94
98
94
73
107
85
75
72
91
82
86
93
74
92
105
94
71
97
104
80
94
101
77
74
74
73
103
88
73
102
71
109
109
93
99
109
71
104
94
82
87
86
71
109
105
107
97
95
98
102
83
97
92
80
105
89
95
89
91
93
80
93
93
85
102
79
95
92
74
85
93
79
71
84
89
98
91
93
71
71
92
96
90
96
70
72
93
71
92
104
77
76
102
100
85
95
106
83
98
78
109
99
96
73
83
85
76
92
94
82
108
101
92
95
107
70
84
101
98
101
90
85
75
99
105
106
87
74
104
78
100
83
96
74
103
102
101
104
72
74
99
91
86
96
74
74
72
107
93
96
86
75
88
80
87
83
89
103
92
79
89
74
77
82
82
98
74
103
90
101
77
102
81
95
86
81
104
97
71
95
82
104
106
81
95
73
103
108
87
92
90
102
108
94
101
92
75
92
74
75
109
92
91
86
96
102
101
96
107
100
82
82
75
70
78
71
95
88
109
85
90
80
83
95
82
99
76
81
85
95
101
108
92
102
82
91
82
81
74
85
78
75
95
100
86
104
107
92
103
102
104
80
107
75
94
90
91
79
98
105
85
99
76
72
103
90
90
93
77
103
92
71
79
79
104
76
70
80
71
73
72
107
87
83
74
78
74
94
70
92
95
92
94
105
104
104
87
89
76
84
97
104
101
80
70
104
100
83
89
86
91
86
97
85
76
95
86
72
81
76
108
74
76
98
101
72
71
76
108
73
86
95
71
93
100
70
84
100
99
89
104
96
80
99
99
94
70
92
104
97
82
92
108
96
71
82
93
80
91
76
93
108
89
96
70
101
81
82
73
101
77
78
74
96
109
104
78
101
85
106
95
97
93
86
95
70
81
85
92
106
82
80
107
90
70
85
96
88
91
83
84
90
82
105
80
78
73
101
97
99
81
81
84
73
98
106
84
76
75
91
98
109
86
71
109
105
107
79
98
102
100
75
85
76
82
108
81
80
78
89
84
71
74
80
79
72
105
80
108
99
91
84
72
97
94
98
84
83
98
93
78
104
107
89
94
97
101
93
102
88
83
93
96
97
96
96
95
87
90
79
79
73
83
80
86
87
74
97
95
72
97
97
100
77
104
92
76
100
91
77
70
101
88
73
93
105
107
89
92
85
77
104
76
81
82
78
75
93
82
92
95
94
74
73
76
102
84
77
90
98
84
108
74
80
101
101
90
88
91
107
79
74
90
107
91
104
95
79
80
78
78
75
84
103
76
94
93
98
101
84
78
101
89
81
106
104
98
80
72
93
105
109
72
86
81
96
102
96
100
75
84
71
102
109
85
106
103
105
71
105
92
104
104
92
80
70
109
85
71
92
94
80
83
89
86
106
107
86
98
88
72
74
96
98
90
76
90
96
91
103
107
107
105
99
81
71
90
105
107
87
76
79
101
98
75
85
90
101
70
87
106
81
83
100
100
86
98
70
85
80
80
91
81
81
109
83
81
71
96
91
94
95
73
106
85
82
87
82
84
79
91
81
99
74
101
80
71
108
102
84
91
90
78
91
88
106
94
105
103
91
80
84
108
92
86
77
77
88
105
96
82
105
107
101
88
99
102
80
97
74
70
109
71
70
109
89
73
78
94
101
108
99
108
84
109
79
107
103
70
109
79
103
79
74
92
99
95
92
70
106
107
74
107
83
95
93
85
99
99
70
91
79
95
88
75
98
90
78
81
90
79
96
75
70
73
74
104
98
73
78
102
87
109
76
107
100
99
102
86
74
71
105
95
86
81
81
76
80
82
91
78
92
88
73
76
86
97
106
70
92
93
80
92
79
102
70
71
73
76
98
80
101
92
71
97
84
105
102
89
108
70
78
76
86
75
81
81
79
70
105
93
95
107
75
81
81
87
90
72
106
82
95
84
86
83
105
81
71
72
103
97
71
86
101
97
104
94
79
100
73
97
95
95
100
109
85
101
70
72
80
92
87
92
80
80
83
84
101
102
72
78
85
108
73
97
98
95
74
81
83
92
84
81
101
107
91
96
104
81
103
104
70
93
80
75
74
86
85
94
78
98
71
74
95
98
81
96
77
84
99
85
77
81
72
87
89
105
84
87
108
99
74
79
94
90
92
102
71
100
76
73
105
100
75
109
86
99
89
106
92
90
76
98
94
99
100
98
102
89
102
80
103
77
95
102
72
83
108
70
77
100
96
79
80
100
86
70
73
87
71
72
105
104
85
103
93
82
97
91
89
83
83
91
75
102
80
101
82
79
96
90
79
108
105
77
98
98
94
70
104
102
92
73
75
70
78
92
83
87
95
82
108
79
89
89
88
85
107
107
78
88
80
75
90
78
78
86
88
103
108
100
83
80
80
102
75
76
103
99
79
72
78
70
70
77
89
74
76
84
98
73
75
101
100
105
104
81
104
88
104
81
80
81
91
86
106
87
96
106
80
74
81
86
102
88
71
102
107
85
105
90
99
70
98
94
83
91
81
77
71
99
100
105
74
108
95
70
84
107
82
72
72
73
97
81
102
79
72
96
70
83
102
79
95
99
97
83
87
81
107
89
107
80
108
87
105
102
95
105
84
83
105
102
72
89
80
82
95
92
104
76
76
99
108
91
93
72
107
108
78
76
88
87
100
95
102
84
102
79
84
88
83
86
86
92
104
97
101
71
97
94
72
91
99
86
90
78
87
76
93
90
97
100
95
94
89
95
92
78
73
94
77
105
73
77
80
74
80
106
80
106
92
86
94
99
100
84
88
104
107
79
81
91
79
81
73
79
91
81
94
71
82
92
82
86
78
87
104
73
96
100
74
73
80
76
100
102
95
92
86
89
106
98
86
104
98
74
76
88
90
108
106
77
73
96
108
70
73
85
108
95
103
94
90
94
76
79
74
90
83
78
85
73
76
101
100
106
80
103
106
82
102
81
98
82
86
99
90
88
76
71
94
101
70
73
80
88
89
87
102
89
90
99
92
72
89
71
100
71
106
73
83
101
79
71
102
93
96
76
84
86
85
76
102
100
77
100
84
79
104
101
74
74
98
75
91
87
96
73
85
89
96
104
94
73
108
79
76
78
88
76
91
79
101
84
74
82
84
88
79
99
71
89
109
101
92
109
107
76
75
90
71
70
90
91
83
79
95
89
70
108
86
99
102
99
108
105
76
73
91
85
88
91
78
99
96
90
96
106
99
72
104
75
99
96
88
90
74
77
86
108
83
73
74
104
109
98
81
96
92
96
90
74
88
89
95
97
98
88
94
98
108
100
88
92
80
77
81
87
108
93
106
104
84
100
76
100
72
84
78
100
88
86
80
103
86
109
96
70
99
73
101
92
76
95
83
76
102
71
70
96
72
109
75
87
88
93
75
94
104
97
97
90
82
85
94
101
98
109
106
72
99
101
94
104
93
80
72
100
94
101
87
77
102
71
72
102
79
76
80
103
84
73
99
85
81
108
92
76
76
90
101
103
107
82
106
71
78
81
81
91
86
79
76
87
94
90
75
96
73
89
107
70
101
84
100
99
78
99
90
83
93
100
73
93
98
89
95
81
72
81
92
90
73
101
77
70
89
102
82
83
87
85
100
84
81
75
99
108
72
98
95
107
92
91
102
79
97
74
93
109
82
95
82
80
84
71
81
73
79
98
86
87
80
78
75
105
98
76
90
98
103
73
93
75
106
72
75
96
86
101
94
100
76
93
107
78
105
85
74
88
78
72
103
93
108
85
79
108
96
72
87
106
107
96
98
100
101
97
97
77
83
107
96
85
103
106
103
99
103
95
86
92
72
95
84
101
76
91
82
101
73
88
83
78
77
95
79
86
87
88
88
81
88
90
84
105
97
94
93
88
102
109
102
85
76
95
95
94
71
70
106
109
79
74
102
78
108
70
92
80
88
75
88
98
75
108
90
103
109
81
78
85
71
80
105
107
99
80
86
81
85
80
72
100
106
104
88
98
97
102
72
98
102
84
81
80
86
71
74
72
72
99
83
97
89
94
81
101
83
74
98
101
87
71
75
81
88
81
96
105
82
109
93
78
107
105
106
100
73
93
84
100
92
85
106
101
93
72
84
75
70
102
99
83
108
101
77
85
107
84
80
91
81
108
97
97
94
76
109
78
106
109
87
74
104
77
91
88
89
95
75
78
100
82
97
74
100
97
76
104
75
91
86
97
86
84
101
86
104
76
80
93
99
102
93
99
92
84
88
99
95
97
94
78
100
79
107
91
88
98
97
97
102
101
107
107
95
83
89
91
88
73
84
74
107
90
92
86
73
107
87
101
87
72
93
98
94
78
106
102
79
82
92
88
70
98
102
80
102
83
77
88
78
75
80
108
83
80
109
92
86
96
73
71
87
106
88
98
106
85
87
98
105
104
101
102
74
82
105
105
91
75
80
94
91
106
78
92
106
96
87
108
107
76
78
97
105
89
86
104
97
86
79
104
95
84
92
91
91
109
82
101
108
106
75
109
109
70
76
73
96
106
84
71
97
104
78
90
92
92
72
106
74
103
77
71
87
102
96
78
71
83
91
85
83
74
70
92
102
103
91
92
86
86
74
77
87
107
105
91
89
91
94
96
93
98
80
96
91
78
83
96
89
76
90
104
87
90
97
91
78
109
99
109
90
76
82
85
93
100
86
91
79
94
88
91
83
70
71
74
107
76
75
72
70
72
103
95
81
74
108
108
92
80
92
91
70
100
76
95
100
85
94
91
94
101
102
98
98
74
83
78
78
73
80
79
72
96
100
90
96
98
79
76
96
105
86
95
74
78
80
77
91
85
106
74
71
80
71
79
77
88
108
75
76
91
92
93
70
90
88
96
108
106
105
94
74
102
88
96
109
107
70
108
106
92
103
81
80
79
77
71
89
79
90
98
85
99
102
73
104
95
106
74
109
106
75
88
83
88
83
71
71
81
93
95
73
90
88
71
107
74
94
84
104
103
93
107
90
98
101
107
87
88
91
95
100
82
109
98
90
96
95
83
80
98
78
108
81
95
100
77
96
89
91
86
73
104
108
85
98
78
82
109
74
107
75
80
72
75
95
101
79
84
84
85
89
100
89
75
81
107
82
91
94
76
107
101
101
82
73
73
85
81
77
92
89
90
82
92
105
75
81
73
75
86
74
93
105
73
78
109
98
102
75
104
93
76
104
95
82
109
98
86
92
73
70
83
109
108
87
76
72
83
106
77
85
85
72
82
72
103
101
106
107
104
71
101
77
95
88
95
107
73
72
109
70
96
92
95
93
80
75
95
100
84
91
98
109
80
80
76
86
72
85
105
100
105
86
97
103
70
100
91
85
71
74
93
83
93
81
99
81
72
79
102
102
100
85
71
84
105
88
85
108
107
79
91
109
90
95
85
82
82
100
108
74
109
98
79
100
95
75
85
89
99
89
105
108
101
77
85
80
103
81
106
98
103
76
79
71
81
100
80
86
97
88
97
89
76
102
91
104
88
83
85
70
105
105
79
96
85
70
92
92
98
91
78
102
70
89
78
73
80
107
75
108
109
96
98
82
77
87
104
95
71
105
77
79
90
89
89
97
70
103
83
77
90
101
87
106
87
73
87
107
101
85
102
91
109
91
81
86
70
85
79
89
100
108
90
85
94
103
78
80
79
87
98
93
87
80
109
101
98
83
99
86
98
82
88
99
73
106
76
76
105
96
95
79
79
70
102
87
85
77
79
84
103
103
74
75
97
85
89
88
95
94
89
97
109
89
105
92
96
85
99
92
85
95
97
104
104
101
97
77
79
73
92
93
88
95
99
95
104
106
99
97
102
83
107
100
72
108
83
95
108
108
79
87
97
92
100
101
71
90
75
103
108
91
92
100
97
103
108
106
101
95
74
83
96
82
102
80
90
73
75
75
76
79
79
91
71
109
73
84
77
101
74
94
101
109
71
96
74
78
70
83
102
70
94
91
107
83
84
108
90
97
84
97
104
77
109
107
78
99
103
87
104
93
73
73
72
77
86
89
91
86
96
75
84
101
105
91
80
85
109
104
98
92
92
96
80
96
78
100
102
78
71
102
89
100
94
80
70
109
89
95
84
77
91
72
88
102
81
74
80
74
89
100
97
89
91
88
100
70
92
96
103
85
105
96
97
80
106
76
88
107
71
91
102
76
79
100
88
71
94
88
105
88
94
89
95
106
82
73
101
72
103
78
89
98
108
85
94
90
92
100
76
96
105
108
79
107
99
87
70
88
81
78
76
80
103
86
108
77
73
108
97
77
71
87
76
107
97
93
106
90
101
96
108
99
78
82
80
73
95
71
104
91
73
75
74
106
90
84
88
83
79
96
97
87
98
74
72
81
95
105
83
104
100
89
71
94
103
86
97
88
85
94
96
95
71
71
98
85
79
81
84
108
77
77
86
76
83
71
109
100
79
95
75
91
82
86
108
79
84
103
91
86
98
76
101
107
75
107
75
83
72
104
70
80
82
76
70
102
104
78
108
84
96
98
96
101
78
71
101
87
92
78
108
92
105
79
87
88
76
86
79
90
98
102
95
79
71
92
107
106
90
104
91
72
91
71
76
92
81
109
89
78
79
89
86
74
88
89
101
102
91
104
109
75
72
93
104
88
91
77
107
75
96
108
83
106
104
96
94
73
99
103
80
100
95
106
71
72
87
89
105
109
79
73
109
70
79
92
95
100
71
80
80
96
106
90
93
96
86
108
86
84
91
85
82
89
81
88
105
77
95
96
82
108
105
74
95
99
82
75
102
83
99
84
72
72
90
107
87
83
102
100
100
84
89
87
87
100
72
108
75
82
88
76
96
77
97
74
83
97
79
91
83
93
78
105
77
92
78
78
83
83
95
103
104
75
95
86
71
78
89
109
101
96
89
96
99
86
86
98
81
90
102
83
72
74
104
72
70
93
94
99
103
71
106
109
82
103
90
81
74
95
79
99
70
92
98
89
84
96
80
89
81
84
80
83
99
81
98
96
107
96
99
107
101
104
86
70
106
73
77
89
80
95
104
79
72
89
101
105
81
82
80
71
99
72
101
99
94
107
76
81
92
96
76
109
92
71
76
99
72
105
102
108
106
78
92
71
74
86
95
71
107
78
70
108
95
94
84
76
80
80
78
75
81
75
83
89
108
90
84
83
77
79
85
92
70
107
85
94
108
106
83
75
91
74
97
73
70
93
94
102
97
104
86
79
90
83
109
71
77
97
109
95
95
106
75
73
109
88
96
105
79
102
79
70
95
72
74
85
70
87
74
103
81
107
87
84
71
78
84
104
71
94
95
101
87
91
88
81
96
91
79
74
73
90
83
79
104
70
81
80
72
74
73
81
80
80
95
107
80
77
96
99
98
88
83
71
78
75
107
102
109
109
82
80
91
78
104
70
95
93
84
107
109
71
75
75
70
97
103
107
94
71
89
89
70
86
105
77
82
79
101
104
86
101
97
107
101
106
94
100
107
108
70
85
75
86
87
109
99
108
102
84
103
78
77
89
91
89
88
101
93
106
93
109
90
77
91
76
80
93
100
96
75
93
109
78
100
94
77
72
71
74
84
70
84
96
79
99
97
97
81
105
78
83
84
87
88
75
96
90
106
88
107
90
105
94
82
103
71
89
102
75
98
98
99
106
94
87
85
71
72
101
84
104
108
97
105
70
106
88
105
85
76
92
106
75
108
80
108
87
100
85
82
87
93
94
96
79
99
80
80
70
89
79
80
83
73
109
101
72
71
84
78
70
87
102
90
106
76
107
76
94
106
91
80
106
70
76
94
85
101
94
103
95
82
93
93
89
92
87
72
87
95
95
86
76
98
73
90
103
105
87
81
77
75
91
81
102
71
86
99
85
82
72
106
82
76
104
84
98
85
79
73
90
98
89
98
95
76
92
107
106
83
75
84
74
94
109
108
83
70
106
79
109
84
93
91
80
72
104
93
95
100
109
97
90
72
81
105
80
95
102
109
92
90
81
76
96
75
96
74
103
101
72
99
88
82
78
72
80
77
93
71
70
105
80
79
85
73
72
100
94
98
104
95
76
94
95
106
84
82
85
75
92
82
98
103
107
100
92
81
74
74
95
83
82
84
81
84
109
109
102
82
105
77
90
82
91
87
94
86
96
107
77
86
98
71
78
106
80
90
92
103
103
105
77
80
72
109
104
71
98
100
75
108
106
80
100
77
79
93
102
71
99
70
78
100
103
99
70
109
78
76
73
105
70
105
88
79
90
76
109
81
83
95
95
82
95
83
109
97
74
88
94
70
77
108
72
84
93
94
104
87
94
74
97
81
103
74
96
72
103
90
88
89
72
108
81
75
83
86
79
93
108
97
88
106
103
99
101
71
75
95
101
105
71
92
86
76
82
107
109
74
87
77
80
80
73
101
99
104
107
81
80
82
100
78
106
76
104
76
75
92
82
72
100
99
97
98
94
84
72
78
87
85
99
70
103
102
71
104
91
88
89
108
81
96
74
73
77
83
89
80
107
108
97
104
95
84
76
92
106
105
96
82
93
90
106
78
91
98
97
87
74
100
92
71
90
94
78
88
105
104
72
85
102
70
96
87
108
100
97
98
81
83
83
95
72
105
108
83
85
77
103
104
87
99
76
106
74
100
72
93
109
107
79
109
89
107
87
102
76
93
79
101
77
104
96
78
81
73
74
79
100
78
98
93
100
94
82
94
75
76
89
87
75
75
77
86
71
99
95
107
87
108
70
91
108
83
87
77
101
99
107
105
106
70
97
108
71
92
109
105
91
83
105
85
89
88
107
98
94
101
103
79
109
84
103
109
88
106
72
85
79
95
71
72
101
109
92
79
73
102
85
77
83
108
78
89
72
107
96
96
72
74
80
98
77
90
81
92
102
109
84
78
70
92
95
86
95
82
99
85
106
100
99
104
99
93
106
106
80
108
76
88
75
105
104
93
73
105
84
70
105
102
74
89
81
98
98
90
93
101
95
78
98
93
102
108
83
86
108
96
81
83
72
82
80
99
73
78
71
79
89
85
72
106
98
92
73
90
96
92
98
95
87
90
73
82
78
95
90
80
109
91
82
102
83
70
70
71
91
95
104
100
103
80
90
92
93
89
78
108
73
92
101
104
100
105
70
82
84
99
97
82
76
75
77
88
85
100
71
102
84
70
108
73
78
87
96
97
82
78
80
87
70
106
109
71
109
91
74
86
103
103
81
94
105
104
80
71
86
108
89
96
78
101
74
78
87
97
75
100
97
109
86
108
86
70
84
77
82
104
101
86
71
99
87
89
108
74
84
75
87
78
109
100
88
75
92
90
89
72
104
91
75
85
74
82
90
72
104
105
99
97
71
81
109
95
94
78
78
105
105
86
71
98
107
98
99
71
80
78
108
107
90
78
95
109
90
90
96
72
73
92
97
84
80
71
103
107
101
82
70
94
78
93
79
72
107
108
102
75
87
81
80
98
71
94
109
71
103
100
99
103
81
86
91
74
95
105
96
95
99
80
100
95
101
99
101
96
109
87
89
86
89
92
70
101
97
99
85
74
73
71
96
75
103
78
89
76
77
103
109
91
81
70
97
70
84
93
99
75
88
94
109
88
102
87
77
108
102
108
88
78
103
107
97
93
74
100
76
80
90
80
104
95
95
92
76
73
108
94
73
95
109
95
89
81
109
89
78
96
95
90
109
83
107
90
101
94
83
73
75
80
78
101
104
91
109
91
101
82
109
92
109
78
92
90
109
81
71
74
71
79
107
92
93
73
91
97
108
76
98
109
94
74
97
93
85
96
83
75
109
103
103
71
73
70
85
72
105
88
101
91
106
90
108
99
95
80
96
83
103
105
95
72
86
104
99
89
80
76
72
75
75
106
73
80
85
81
96
89
94
102
108
92
79
74
72
95
75
89
82
101
85
75
73
104
74
73
99
73
72
80
101
100
79
82
84
95
79
78
100
76
107
76
79
76
109
109
105
95
73
98
89
90
70
76
82
88
82
100
82
76
85
77
107
109
98
102
88
99
89
100
90
89
96
104
93
76
100
93
92
107
106
92
84
88
106
83
80
78
71
83
104
90
80
89
79
95
75
104
85
85
74
93
83
90
86
91
77
108
108
104
76
109
101
96
93
79
106
80
92
98
104
109
101
77
96
70
108
89
90
79
83
76
91
96
76
85
76
86
88
99
77
88
88
98
106
76
82
80
109
75
86
93
93
74
80
82
77
75
97
84
103
107
82
105
83
77
104
74
106
87
86
73
88
91
87
85
90
98
76
91
76
76
93
79
78
98
75
108
104
87
85
96
91
76
97
83
74
92
102
98
73
104
71
71
109
75
74
75
92
104
82
79
102
83
99
103
100
93
84
81
72
108
105
84
101
106
81
107
104
109
93
108
80
87
91
93
74
71
74
103
96
104
78
93
91
88
70
70
70
91
92
97
77
105
77
97
94
78
82
89
94
88
94
105
71
102
97
106
81
79
92
71
71
73
102
84
107
83
71
99
85
109
91
101
71
102
105
70
101
78
92
84
107
101
81
81
95
84
106
71
89
107
99
75
104
90
108
93
71
84
70
103
103
97
105
101
79
107
108
100
98
107
78
93
88
101
102
91
79
89
70
99
91
107
102
92
99
85
78
88
78
107
90
74
78
96
101
96
84
96
72
90
85
85
82
107
100
70
108
88
71
84
101
103
70
71
84
74
97
73
76
108
97
97
101
107
74
75
88
102
87
77
107
105
103
109
94
95
103
97
93
87
80
71
79
90
74
103
78
108
72
78
104
89
86
108
77
83
105
104
98
81
79
74
70
97
87
97
107
80
81
79
87
73
72
81
91
101
87
99
100
83
99
100
88
89
103
78
107
81
77
97
75
94
92
87
81
97
101
83
89
95
91
94
75
94
73
75
107
96
78
76
102
70
87
83
70
73
76
101
87
93
78
92
91
80
70
109
75
105
90
98
88
92
108
104
105
93
83
99
101
106
86
80
107
70
78
91
88
84
107
99
97
89
106
91
74
109
86
98
86
75
93
85
87
94
92
91
104
102
93
106
90
84
79
96
100
75
103
84
71
95
94
70
104
83
107
77
95
77
107
79
80
92
86
102
87
109
99
89
106
106
79
88
74
101
90
101
98
92
82
87
106
101
93
88
86
75
96
97
83
73
77
77
82
79
77
108
105
99
90
73
101
105
97
109
76
102
102
93
83
105
104
82
91
92
78
96
73
90
98
73
70
105
109
90
84
97
99
79
106
109
97
91
106
98
100
106
97
70
83
82
71
108
72
70
80
76
91
70
74
104
96
108
104
76
98
104
94
85
103
86
93
102
70
78
73
70
79
77
98
78
106
98
88
98
98
84
98
79
99
106
97
100
90
82
80
99
92
70
87
89
82
91
73
108
83
100
90
85
82
96
93
78
82
79
100
78
87
106
105
82
103
92
101
102
105
91
96
101
76
107
88
101
99
70
93
79
71
84
76
102
78
97
82
101
75
104
85
85
102
98
101
79
86
100
80
104
107
71
94
83
73
81
98
99
98
77
82
96
91
86
73
89
98
82
107
84
78
101
105
98
103
91
70
94
96
90
72
103
90
70
107
76
83
95
106
80
95
97
104
95
93
91
103
71
78
74
87
106
97
78
80
83
75
108
83
95
93
94
78
86
102
97
87
81
74
77
107
79
99
90
103
107
96
73
71
72
75
96
109
88
95
75
108
104
105
103
101
104
102
80
98
107
70
102
105
98
79
91
92
93
109
96
95
76
81
89
105
99
88
78
94
93
109
100
84
82
89
91
100
108
74
80
84
94
106
86
99
86
97
89
92
85
102
76
95
92
98
83
100
81
109
75
106
90
77
81
87
97
100
88
72
97
89
87
107
80
74
98
75
94
105
71
84
93
108
84
88
105
82
104
74
105
98
71
72
70
78
74
94
92
104
86
81
96
108
75
80
97
103
88
82
105
94
77
108
85
73
74
82
83
105
102
73
108
72
82
106
82
89
103
105
100
96
93
78
72
106
70
76
104
72
98
72
80
72
84
100
86
77
92
101
107
96
95
106
73
102
84
86
86
76
88
80
104
97
93
80
81
99
78
84
94
101
102
109
90
71
98
100
104
102
76
105
80
86
89
109
97
93
109
77
81
105
94
74
81
93
78
71
109
96
101
91
90
95
102
96
80
76
80
75
82
70
104
77
75
99
86
81
92
92
109
79
76
96
95
88
95
83
104
75
74
80
97
88
77
101
81
83
105
86
95
98
85
100
90
99
92
88
92
72
81
107
93
108
102
79
76
75
97
91
75
76
104
75
100
98
86
79
70
108
87
101
109
98
96
73
73
73
98
76
101
96
105
74
107
84
96
80
102
81
103
70
104
82
88
90
93
106
70
77
87
92
103
106
108
104
108
108
109
104
94
71
80
106
107
106
96
78
73
75
75
106
75
107
77
76
98
76
100
96
77
88
75
107
99
76
90
87
80
93
94
71
87
81
101
70
72
74
77
107
90
86
101
104
90
74
76
107
93
73
81
84
106
87
106
72
91
91
73
78
85
101
84
104
94
83
108
108
103
98
80
75
75
75
91
81
103
84
75
87
89
73
92
102
86
91
84
101
70
104
72
108
99
74
87
81
99
84
77
107
97
91
75
102
91
90
93
95
87
72
108
96
87
101
93
85
104
91
105
72
101
98
94
106
73
102
95
99
109
101
80
92
70
92
84
75
75
97
98
72
85
78
101
109
95
92
84
90
89
79
89
82
104
89
101
88
104
73
100
94
76
109
93
80
77
109
109
100
90
90
108
84
79
103
72
104
105
79
73
101
72
71
93
99
70
93
84
94
87
82
102
98
73
76
100
85
95
95
77
79
88
100
90
85
109
82
108
79
84
109
100
86
70
108
99
106
87
87
83
75
71
105
102
87
84
82
101
83
107
104
84
77
103
80
76
90
88
71
73
83
96
94
85
101
106
101
76
97
76
94
74
105
95
78
90
76
100
104
105
92
98
107
98
94
101
92
98
106
104
71
87
100
94
106
93
81
85
82
105
86
85
107
81
86
88
74
107
74
98
109
102
78
75
93
87
82
98
107
100
70
84
105
86
81
70
90
74
84
95
92
72
106
81
101
104
83
90
108
74
81
102
73
85
107
95
96
75
88
87
106
107
86
85
109
102
76
87
109
77
108
79
90
75
109
97
108
80
88
84
108
109
81
94
85
71
89
85
83
102
98
92
99
77
74
106
99
95
91
82
91
79
98
78
108
72
71
92
80
79
76
78
91
78
74
109
104
83
96
78
103
96
70
104
77
107
81
108
100
73
79
86
101
71
93
107
91
81
87
75
90
102
81
97
72
84
91
105
74
88
74
106
106
89
109
84
72
102
100
91
103
84
88
108
98
100
95
87
70
109
71
86
89
86
77
85
83
102
78
75
84
96
85
104
102
73
86
95
85
76
108
102
108
72
86
83
90
72
86
105
85
83
77
92
77
93
97
74
109
70
73
98
77
98
83
73
75
72
75
82
83
79
87
101
92
70
96
100
101
106
100
106
81
93
90
77
95
101
101
78
84
107
93
71
101
85
82
92
88
71
98
76
98
101
93
74
78
92
87
87
76
82
103
106
105
82
109
91
94
108
89
76
107
85
89
73
77
91
75
82
101
100
108
94
99
104
104
74
83
83
84
83
95
103
87
88
85
82
88
91
98
84
100
82
103
84
95
81
83
99
77
82
82
73
89
72
109
70
102
88
73
76
101
104
100
91
78
77
85
77
73
88
84
100
79
88
82
88
85
70
90
109
74
109
72
76
97
105
72
73
105
81
82
94
106
104
101
93
90
104
90
83
82
80
83
108
75
72
75
73
84
73
79
89
80
91
102
95
84
81
101
72
71
104
101
72
77
72
89
94
101
82
99
108
89
99
87
83
109
71
98
87
76
98
100
87
80
83
84
89
105
98
74
83
96
99
99
92
108
83
72
92
93
98
105
73
95
98
80
91
104
71
80
107
85
96
88
104
82
109
106
97
106
73
90
74
86
98
83
89
72
95
83
96
107
105
106
88
75
85
103
91
83
80
92
91
87
108
75
106
102
107
73
73
101
97
98
77
80
70
85
94
81
84
97
90
102
71
96
82
79
99
75
91
77
90
95
104
89
85
78
102
84
74
72
88
74
80
108
76
93
95
74
101
87
83
75
83
72
83
99
104
73
76
101
99
71
108
79
99
93
100
72
76
107
77
104
78
107
70
95
71
86
100
105
85
106
108
103
73
87
77
89
104
106
98
108
84
105
70
70
106
89
88
98
109
76
105
104
99
79
100
107
102
107
94
98
86
89
94
71
93
92
70
92
76
98
106
96
92
107
97
84
87
101
82
106
103
71
81
96
87
101
106
105
74
76
84
77
88
94
74
99
104
79
86
76
82
89
87
105
84
77
101
71
104
107
74
74
108
76
83
72
74
86
95
88
105
88
71
91
84
71
87
81
81
88
100
79
76
94
95
72
85
102
89
73
103
82
95
89
107
75
88
73
100
106
91
89
84
104
95
75
88
77
94
99
87
94
73
79
97
98
82
84
93
72
94
98
99
97
97
96
83
91
103
74
86
105
96
98
108
77
75
94
77
95
78
97
84
91
101
99
72
70
73
93
77
89
91
80
108
105
97
94
102
93
96
92
78
82
76
101
95
93
107
90
99
103
88
81
95
93
71
100
83
96
108
92
102
81
89
77
81
90
87
83
91
74
85
109
101
95
71
106
103
72
81
105
107
75
100
77
95
93
95
73
97
72
106
88
79
98
71
104
108
84
91
72
90
79
91
87
84
102
98
71
106
88
106
75
107
108
89
92
102
75
70
82
82
96
108
89
103
75
78
98
92
70
107
84
75
79
109
98
81
80
92
102
74
99
105
94
77
98
95
79
83
94
108
88
78
102
81
88
80
107
78
89
73
73
82
71
102
105
73
100
78
93
103
102
86
99
75
92
87
101
96
93
102
88
104
97
77
108
74
100
89
99
70
96
92
78
102
105
83
76
71
95
74
92
88
72
94
86
75
93
107
85
89
86
95
79
75
95
79
80
94
93
98
91
71
100
91
99
95
83
82
73
80
91
92
87
89
75
90
84
71
79
72
105
109
74
79
84
76
90
93
106
94
75
91
99
88
103
71
88
71
84
75
96
84
70
78
100
82
79
98
95
79
76
109
90
74
106
76
87
92
97
109
92
82
103
84
90
106
72
88
95
75
101
102
97
106
90
79
84
75
109
102
102
84
83
76
80
104
109
103
87
107
100
96
101
89
72
109
90
108
95
71
70
86
92
100
107
75
86
71
71
82
99
94
96
102
77
108
107
104
107
88
70
104
91
95
84
100
79
86
89
71
93
106
87
77
83
83
88
102
91
86
109
98
107
98
102
92
73
93
107
106
109
104
82
91
71
96
74
74
106
95
104
107
81
82
72
91
106
100
102
100
88
76
109
89
85
98
72
71
103
87
103
101
82
85
92
94
87
101
79
108
100
104
95
87
75
72
90
94
79
80
102
93
101
81
96
87
104
94
102
78
79
82
96
90
106
89
76
70
75
92
99
73
106
73
109
91
76
107
92
86
76
93
72
72
74
85
70
94
100
103
103
74
74
102
86
72
78
98
90
78
108
95
109
98
86
75
108
88
107
82
88
92
97
101
100
93
96
88
103
99
105
107
100
107
87
84
73
104
85
98
78
76
105
109
86
103
103
84
98
102
72
103
84
88
108
71
105
77
94
74
75
97
80
83
70
88
79
90
105
105
95
104
71
72
98
78
95
71
109
94
72
76
92
97
89
105
87
74
96
88
92
76
74
101
96
80
75
73
88
73
93
100
93
108
94
91
71
105
77
82
89
79
86
99
86
104
71
104
81
80
81
93
107
108
99
106
97
88
83
88
76
90
71
89
86
77
83
100
73
80
83
89
90
73
108
99
78
84
86
108
91
96
92
77
106
99
95
94
108
109
88
90
91
75
85
71
98
77
78
101
71
98
88
100
96
90
89
107
84
109
93
78
84
106
73
104
90
98
94
73
104
86
104
74
107
78
88
103
73
99
70
107
98
71
75
82
76
84
78
91
97
91
86
77
100
86
71
93
105
103
104
100
101
91
93
93
70
105
104
96
76
87
77
72
81
95
93
76
100
70
92
92
76
70
87
82
75
92
80
92
105
100
93
79
99
83
85
70
100
102
100
75
74
89
81
108
108
83
102
106
99
88
105
94
78
78
81
85
82
108
106
86
73
80
92
73
107
88
80
107
75
107
94
95
76
106
91
95
99
97
94
91
70
98
85
88
101
75
84
109
72
102
94
91
98
107
70
107
92
97
96
84
85
106
84
93
73
80
99
72
87
82
109
79
79
84
82
75
75
102
87
99
86
91
100
90
99
108
107
108
79
70
100
82
81
106
95
92
73
108
89
95
103
78
74
79
101
78
70
103
104
109
84
70
107
105
91
76
108
85
107
101
91
79
107
93
80
91
79
85
84
102
76
85
91
102
79
83
97
88
90
83
75
81
81
79
71
73
85
72
94
101
78
94
88
108
78
100
97
93
91
104
75
87
77
90
108
96
90
74
105
90
78
79
108
91
71
109
82
92
88
79
103
84
99
86
86
86
101
104
76
72
93
92
93
85
85
101
97
102
100
101
104
84
82
92
91
105
78
105
109
80
85
96
90
90
76
85
94
83
104
80
97
108
91
98
90
98
90
87
74
102
92
83
107
79
94
98
104
101
109
107
79
79
108
76
76
71
79
100
95
84
78
93
89
97
86
89
91
92
84
71
104
82
92
93
76
97
89
88
92
70
70
98
72
71
92
83
79
76
109
83
89
106
88
79
99
71
86
98
103
101
93
94
98
89
74
107
74
91
101
87
87
91
71
78
96
90
79
108
90
87
109
105
77
91
79
109
72
71
75
76
86
84
99
99
72
91
103
100
109
70
88
70
79
86
105
105
96
103
83
96
109
81
81
95
106
105
89
87
70
71
108
88
105
96
95
79
99
79
75
73
86
104
98
70
70
102
76
80
104
94
105
102
97
90
71
101
80
98
94
86
103
104
90
94
70
91
97
82
105
71
86
97
108
107
93
94
83
91
96
78
70
103
73
71
77
75
81
90
104
72
72
74
99
99
102
109
88
100
97
99
109
106
72
108
79
86
96
95
103
101
100
89
76
89
91
98
73
90
93
78
97
81
77
82
72
70
101
78
92
75
103
106
108
72
96
92
88
72
74
105
105
84
82
105
89
78
102
104
78
81
91
82
107
95
87
71
88
91
82
104
92
72
98
73
72
81
79
87
101
99
92
75
105
96
104
95
94
77
84
73
91
87
93
94
103
89
108
97
107
89
76
76
103
99
107
93
104
86
77
77
105
94
78
70
103
89
103
99
97
95
91
84
88
99
89
81
76
79
92
95
87
71
74
89
94
100
106
105
100
109
106
95
73
97
88
81
84
80
103
84
85
98
76
97
86
87
89
84
98
97
97
73
78
95
93
80
79
100
103
91
109
87
94
85
103
100
81
77
71
91
87
106
71
103
70
74
76
74
83
86
81
103
90
96
71
104
109
80
92
73
82
75
74
108
80
102
106
79
83
81
96
99
105
71
89
78
107
100
98
108
88
104
90
97
94
108
83
98
82
106
93
100
90
90
100
101
90
98
99
98
84
78
88
105
99
89
106
88
105
74
72
101
71
74
84
95
94
84
81
93
100
86
73
70
105
80
89
96
106
75
104
77
109
108
70
83
86
96
82
91
98
90
95
93
90
99
72
73
82
73
73
73
90
83
72
101
101
92
99
87
73
86
75
72
70
106
74
107
106
93
90
97
100
76
70
108
87
91
109
88
74
98
99
86
94
98
82
91
71
79
98
72
102
78
92
76
70
80
85
71
78
95
105
96
79
105
78
98
103
75
99
106
101
80
88
100
70
98
87
86
86
88
100
93
91
81
82
87
79
103
70
89
76
71
95
90
93
81
70
71
82
107
82
72
100
107
103
83
106
84
96
80
92
88
99
93
94
95
109
74
103
71
109
96
74
77
93
93
92
75
102
75
104
74
83
83
104
98
105
91
84
104
109
104
71
94
94
72
96
105
109
86
95
103
107
107
73
72
82
99
70
80
102
87
104
89
101
97
79
101
92
93
107
100
84
101
105
83
78
77
81
87
91
105
103
88
79
76
105
97
78
99
73
95
79
89
84
96
88
84
89
93
74
87
78
83
95
97
104
103
90
102
97
80
86
85
79
82
73
90
106
79
73
109
86
73
88
82
106
78
93
74
80
90
91
99
86
75
93
99
92
105
98
98
88
85
78
89
102
76
105
93
108
91
76
89
108
109
105
91
107
83
90
93
90
83
78
103
107
109
95
75
95
74
94
73
93
85
83
84
85
78
104
109
102
85
86
79
109
84
99
91
79
104
82
92
73
81
106
93
85
80
92
73
71
81
87
91
105
105
94
88
109
81
101
90
89
92
88
87
103
93
93
89
85
101
82
71
75
76
90
99
99
77
92
101
70
87
84
89
92
96
103
92
84
77
105
77
77
96
105
105
75
82
79
103
71
73
76
94
104
107
75
83
87
83
103
103
82
75
94
97
94
107
92
96
74
97
91
76
74
90
89
109
73
96
106
84
83
77
95
73
98
86
103
108
87
99
70
72
108
102
92
84
87
82
103
92
89
94
91
96
95
98
88
75
89
81
85
103
106
88
92
88
104
94
85
102
92
101
88
70
91
87
86
106
86
92
95
72
95
84
97
81
86
87
79
100
83
77
96
82
92
75
90
83
97
91
86
81
86
88
94
74
81
80
84
84
84
74
85
76
101
97
78
104
101
82
109
86
70
107
99
108
73
101
97
106
78
92
73
92
84
108
70
77
100
94
79
104
98
107
95
88
75
72
73
107
77
99
106
91
107
76
71
85
88
79
73
101
87
98
78
82
96
98
90
85
93
99
94
96
85
104
87
101
105
95
82
108
102
96
95
97
82
80
83
93
90
105
75
108
108
84
86
104
80
90
90
76
108
95
81
74
104
72
85
89
71
71
82
106
80
92
91
74
83
78
80
108
104
106
86
72
84
83
79
79
77
83
100
80
81
81
97
80
98
84
72
109
92
87
88
76
90
85
70
92
78
102
100
107
96
91
74
87
72
95
99
87
95
86
82
83
83
106
108
89
74
76
88
82
106
104
84
84
77
76
97
97
74
98
82
96
90
83
104
98
105
87
98
88
86
75
91
84
100
74
101
109
81
95
101
94
103
97
70
81
81
72
83
104
73
79
79
92
72
75
71
98
109
75
99
99
97
89
96
90
106
96
73
107
103
77
96
83
75
99
95
99
102
74
108
88
89
88
85
72
72
82
79
93
84
100
102
70
82
80
88
103
102
92
106
109
108
79
80
95
80
77
78
74
92
89
77
91
74
82
91
90
75
105
73
77
104
74
75
90
71
105
107
74
104
79
87
106
87
85
93
100
93
88
100
94
75
86
108
72
70
80
97
107
73
80
92
89
79
76
75
88
105
108
82
75
87
89
81
74
74
78
103
81
89
76
104
79
98
88
92
71
92
104
88
84
82
70
104
89
99
83
93
70
103
72
83
74
77
97
71
85
107
91
71
77
85
80
98
85
90
80
98
104
83
82
79
100
86
92
86
100
106
87
81
70
83
86
81
95
96
72
89
84
83
84
109
106
89
109
74
80
91
78
88
83
84
71
102
82
108
89
93
100
92
71
79
71
83
85
89
106
105
85
71
101
98
80
71
95
85
98
73
72
101
81
85
97
103
87
77
72
93
94
77
88
99
91
72
73
97
86
109
99
104
73
106
105
88
87
79
108
72
96
102
77
80
74
105
72
76
89
101
77
89
106
94
88
70
76
100
107
75
89
108
75
84
92
105
80
76
74
100
97
108
102
82
96
107
80
109
97
98
86
102
97
80
70
97
76
108
106
89
87
81
101
78
104
79
101
84
91
95
89
70
70
103
93
99
71
95
84
88
77
107
85
70
92
90
73
77
92
94
76
73
92
101
90
100
83
87
92
100
72
97
91
86
91
90
92
91
84
76
77
106
90
93
95
71
70
79
84
99
89
84
99
99
74
70
73
109
77
77
99
104
81
98
73
107
105
93
101
106
77
98
108
92
73
105
76
88
95
78
95
105
105
70
86
96
105
75
106
105
92
73
87
96
76
82
91
86
94
95
109
70
84
105
97
77
91
71
107
74
103
80
97
81
77
107
86
102
106
109
100
89
90
83
99
93
75
73
79
77
99
82
86
89
95
88
75
93
71
71
108
99
70
77
91
107
78
108
99
103
75
100
80
92
70
99
100
86
85
102
72
99
105
76
104
106
88
80
82
109
92
88
96
77
92
101
100
86
106
90
84
107
85
95
70
98
103
96
101
83
74
82
108
93
94
94
98
74
94
74
79
100
84
75
87
80
98
103
109
98
99
75
97
105
88
80
101
76
95
75
84
101
90
101
84
101
76
72
77
88
105
92
82
90
70
80
96
74
70
101
109
95
95
71
107
105
93
93
101
97
109
92
97
74
76
79
95
81
97
82
105
108
89
86
83
104
74
103
100
85
90
85
85
85
80
104
90
75
90
103
103
105
105
91
93
77
106
71
94
92
87
83
109
95
102
106
72
109
80
72
98
89
92
96
109
93
92
76
109
72
73
86
83
84
99
87
104
75
75
103
88
107
109
108
73
103
80
86
92
105
104
90
91
92
70
94
100
95
109
77
109
79
96
90
72
107
91
82
105
70
96
101
94
88
75
78
70
102
79
99
93
76
106
71
103
72
70
78
74
97
106
81
82
80
73
107
103
101
73
98
105
109
79
74
79
106
96
95
92
100
75
105
91
95
86
93
109
109
94
98
89
93
99
96
99
100
99
80
95
75
109
104
96
80
81
86
92
98
94
87
82
80
108
80
88
105
92
101
86
81
109
104
102
98
72
92
72
97
101
90
81
83
103
92
108
80
86
88
93
71
92
104
89
98
75
80
105
75
100
71
89
70
106
73
100
97
81
92
82
98
73
73
77
72
80
102
88
84
95
106
97
97
82
80
105
106
70
80
97
99
95
98
87
107
103
101
81
73
102
95
97
92
86
109
74
87
70
85
74
93
90
90
96
80
72
96
104
89
94
73
109
83
83
80
87
89
99
83
93
74
95
78
76
73
84
94
96
90
90
107
83
89
80
105
76
77
79
88
89
78
76
99
104
83
89
95
106
95
94
85
89
100
108
73
108
88
83
99
81
96
85
94
90
106
90
103
75
87
109
88
74
73
86
102
88
73
74
80
87
77
104
97
93
88
70
96
104
90
107
101
74
89
101
95
71
72
87
92
93
103
75
80
84
83
86
82
109
87
108
91
71
107
81
80
96
109
107
98
105
77
108
92
70
94
108
77
92
89
94
103
99
107
90
95
86
91
83
70
104
77
97
79
82
106
82
106
91
107
108
96
71
100
103
80
90
86
89
98
103
71
73
74
100
93
104
95
105
81
109
100
89
89
88
70
71
81
73
71
77
83
98
91
89
108
98
105
81
105
91
108
104
81
95
75
97
77
94
78
100
94
107
106
87
93
72
102
71
97
95
71
103
108
107
73
79
95
102
79
89
87
84
92
80
104
96
75
74
105
77
92
96
96
71
97
91
88
75
88
81
96
85
105
96
94
105
90
106
92
84
89
98
105
107
106
71
107
91
90
86
91
92
91
92
90
104
80
76
83
104
92
86
80
81
94
97
98
82
96
98
75
74
88
77
70
72
102
84
106
82
95
78
99
74
106
81
73
78
105
91
101
71
98
77
89
101
102
98
95
80
81
94
93
97
108
106
79
75
96
87
109
84
108
73
103
81
104
103
103
97
90
79
86
96
73
79
97
87
73
90
101
98
95
95
105
106
101
80
83
76
71
82
77
82
103
96
97
80
78
93
75
73
76
98
78
83
99
92
90
97
103
81
85
80
72
77
95
100
106
88
82
75
84
90
73
106
97
74
72
71
92
100
101
78
79
89
78
96
94
99
100
89
71
81
78
82
100
79
104
102
109
105
108
80
103
98
74
109
90
72
93
94
106
99
102
105
75
86
77
103
91
108
77
105
98
87
104
103
93
85
74
74
100
108
106
91
80
72
87
99
97
106
79
92
71
99
77
80
88
73
84
73
81
89
87
72
96
78
99
98
106
72
96
87
80
97
91
77
103
76
104
85
88
79
70
100
93
91
91
108
101
97
97
100
106
71
89
70
73
76
96
96
98
104
95
93
89
87
88
92
99
79
109
73
109
104
82
83
74
92
78
78
83
71
79
81
76
81
84
75
93
97
86
82
94
92
89
84
102
70
71
81
94
97
103
104
81
92
100
98
95
101
80
108
98
106
83
97
105
93
95
103
83
78
86
80
86
101
101
108
89
72
82
109
86
97
93
83
100
108
75
73
92
71
89
72
106
75
79
90
95
83
98
82
109
99
94
98
90
90
100
109
80
74
81
94
92
72
71
89
78
95
88
80
88
106
87
72
91
90
98
78
86
108
93
92
89
103
88
96
97
100
77
79
92
103
82
86
80
109
86
89
70
70
73
80
77
93
84
70
100
102
100
107
104
80
73
93
96
90
108
75
76
83
88
106
109
92
103
84
89
89
72
93
94
105
72
87
73
81
104
105
79
104
85
107
92
70
101
77
73
102
96
81
108
94
85
71
107
84
95
71
96
83
88
84
92
71
93
87
93
109
73
73
90
95
70
109
73
102
97
101
94
97
86
76
87
101
85
100
109
101
107
89
70
92
99
94
97
80
78
94
89
82
73
101
78
99
71
73
80
106
102
75
109
83
86
106
101
73
103
74
93
71
82
97
73
92
99
106
101
93
109
78
109
80
87
103
91
70
94
95
89
80
107
73
95
109
94
85
104
74
91
74
81
108
100
87
89
82
95
90
95
70
90
109
88
86
76
70
96
70
93
87
75
104
88
109
84
70
96
76
94
79
82
74
106
105
90
91
72
71
80
94
97
107
75
85
91
84
94
106
78
107
107
88
80
75
86
97
100
72
108
71
105
73
91
84
87
96
90
109
92
98
101
92
73
74
98
85
87
107
88
76
70
86
89
85
102
80
84
83
95
80
88
109
95
96
70
86
98
73
103
101
87
84
102
93
72
86
70
109
90
99
79
74
86
79
93
91
86
88
74
77
108
88
86
96
80
83
76
74
89
84
102
91
79
92
99
73
70
101
96
85
76
99
109
93
102
101
82
83
96
91
105
70
101
88
109
103
86
74
108
79
94
103
105
103
101
99
93
96
74
71
95
77
87
92
97
109
72
73
93
85
92
72
96
102
80
79
94
98
104
78
86
101
87
85
95
81
80
104
91
75
102
101
107
109
97
93
107
107
82
106
104
73
106
96
79
76
70
78
87
89
77
95
90
92
108
92
72
90
90
108
93
80
72
103
108
109
83
103
76
77
78
81
98
104
97
106
95
106
78
109
107
92
78
84
105
84
103
109
85
72
73
103
92
80
73
100
83
109
77
98
91
85
106
85
99
72
82
71
78
71
90
75
95
100
83
70
82
77
94
103
109
93
102
88
71
92
97
93
71
93
87
77
88
97
70
79
108
91
77
103
71
107
72
80
93
95
100
92
94
103
99
106
88
79
97
88
70
91
96
82
89
109
89
97
108
83
92
86
100
87
74
81
79
95
81
78
108
78
88
95
100
106
76
80
87
72
74
102
90
92
77
106
95
70
74
77
70
89
75
99
83
86
105
93
88
73
93
106
108
98
88
103
84
70
106
79
73
102
72
99
74
73
74
93
83
86
92
98
86
77
98
78
82
79
73
76
89
106
108
87
78
89
109
107
94
91
108
103
86
99
109
71
78
81
101
108
101
79
101
87
109
70
106
70
