kroE100
100
1 3477 949
2 91 1732
3 3972 329
4 198 1632
5 1806 733
6 538 1023
7 3430 1088
8 2186 766
9 1513 1646
10 2143 1611
11 53 1657
12 3404 1307
13 1034 1344
14 2823 376
15 3104 1931
16 3232 324
17 2790 1457
18 374 9
19 741 146
20 3083 1938
21 3502 1067
22 1280 237
23 3326 1846
24 217 38
25 2503 1172
26 3527 41
27 739 1850
28 3548 1999
29 48 154
30 1419 872
31 1689 1223
32 3468 1404
33 1628 253
34 382 872
35 3029 1242
36 3646 1758
37 285 1029
38 1782 93
39 1067 371
40 2849 1214
41 920 1835
42 1741 712
43 876 220
44 2753 283
45 2609 1286
46 3941 258
47 3613 523
48 1754 559
49 2916 1724
50 2445 1820
51 3825 1101
52 2779 435
53 201 693
54 2502 1274
55 765 833
56 3105 1823
57 1937 1400
58 3364 1498
59 3702 1624
60 2164 1874
61 3019 189
62 3098 1594
63 3239 1376
64 3359 1693
65 2081 1011
66 1398 1100
67 618 1953
68 1878 59
69 3803 886
70 397 1217
71 3035 152
72 2502 146
73 3230 380
74 3479 1023
75 958 1670
76 3423 1241
77 78 1066
78 96 691
79 3431 78
80 2053 1461
81 3048 1
82 571 1711
83 3393 782
84 2835 1472
85 144 1185
86 923 108
87 989 1997
88 3061 1211
89 2977 39
90 1668 658
91 878 715
92 678 1599
93 1086 868
94 640 110
95 3551 1673
96 106 1267
97 2243 1332
98 3796 1401
99 2643 1320
100 48 267
93
84
73
93
91
106
95
101
106
103
98
96
70
84
109
75
79
102
70
93
70
70
89
76
85
101
84
101
108
95
106
90
81
80
83
81
71
108
91
106
83
91
106
97
107
94
93
109
103
91
108
80
85
71
99
81
88
84
100
94
104
80
108
77
80
104
109
93
84
85
93
104
89
103
109
84
98
71
92
99
95
81
85
95
89
106
86
74
92
102
74
77
92
93
90
103
83
78
71
89
73
77
92
79
77
90
105
73
91
98
106
83
79
89
90
98
97
87
90
104
74
99
79
106
93
78
99
104
81
106
90
84
86
90
71
79
70
107
88
72
87
76
104
94
78
98
91
105
86
103
87
75
89
76
90
101
86
108
94
71
91
99
76
104
77
94
72
79
86
77
81
89
86
87
84
92
101
100
89
107
87
81
70
91
98
104
90
93
100
86
77
94
105
89
94
83
91
97
94
81
90
77
91
83
103
98
103
93
91
104
74
73
77
94
85
96
76
71
97
92
90
108
95
75
74
84
89
94
99
73
72
99
108
101
72
71
75
93
81
96
105
77
72
83
96
84
93
97
72
82
70
104
86
95
108
79
78
109
107
73
75
88
88
102
92
109
95
94
97
97
107
79
70
75
97
89
79
93
71
80
70
79
80
90
96
85
75
90
102
99
78
76
91
109
109
97
97
75
72
109
106
109
75
80
99
99
95
98
83
81
73
107
85
97
97
90
73
97
94
99
74
94
97
70
84
73
71
86
100
89
99
87
93
89
107
76
104
92
73
96
99
86
109
99
109
109
96
71
81
96
84
108
89
86
91
96
86
91
102
83
109
70
104
99
83
102
89
91
100
70
102
89
88
70
105
80
80
85
101
107
103
84
78
107
108
92
70
107
104
99
74
81
75
91
95
72
107
75
79
76
104
82
72
102
105
89
79
97
83
80
72
84
100
84
106
81
107
96
89
84
74
89
99
88
102
86
88
79
87
88
75
81
99
79
78
87
87
85
85
80
105
95
82
75
80
72
73
86
101
72
92
70
78
86
90
96
79
97
91
72
100
102
95
96
86
85
72
84
74
92
85
91
72
80
73
80
97
97
75
81
74
70
71
96
105
73
109
81
70
84
72
99
108
84
106
98
80
108
70
84
105
109
86
83
104
93
86
74
74
70
89
108
91
89
90
73
86
90
77
98
82
70
88
71
79
82
84
95
98
109
72
104
109
73
96
72
98
102
105
83
97
96
105
77
96
98
85
98
99
98
91
84
92
87
81
94
108
104
109
79
83
71
94
96
77
71
83
105
86
89
91
73
103
101
92
93
88
95
104
91
88
72
77
103
100
87
84
86
84
79
93
97
92
107
96
92
82
95
87
104
107
104
74
93
75
79
83
92
100
98
92
108
86
108
101
75
105
71
74
72
71
78
100
87
85
87
103
76
83
73
92
107
82
107
80
71
93
70
93
74
92
83
95
101
85
95
81
104
83
78
81
84
92
86
82
87
85
102
89
104
105
70
98
91
82
96
107
103
87
88
73
78
102
81
90
85
84
80
107
77
91
100
107
105
91
70
95
90
85
77
95
87
83
109
105
80
84
73
77
76
71
87
105
106
109
76
94
93
100
103
90
92
105
98
79
89
94
78
99
87
92
78
82
82
90
87
74
90
95
86
101
104
77
82
92
92
71
100
89
94
84
77
70
107
108
95
108
106
98
86
103
72
99
96
104
105
70
90
99
72
92
101
83
89
98
74
90
85
101
106
85
77
101
81
94
107
85
99
76
85
105
87
73
99
81
91
107
108
70
96
93
99
83
96
78
96
70
94
75
108
78
101
96
93
78
99
84
75
107
78
78
106
107
72
107
89
95
71
106
98
107
97
105
100
99
78
104
109
96
94
70
107
75
85
108
85
80
107
103
77
79
105
74
89
80
97
107
98
93
101
108
93
84
83
101
97
84
104
80
71
80
98
94
80
107
98
96
100
91
106
95
103
88
107
88
81
103
75
75
70
82
77
107
75
106
104
91
82
104
101
102
104
88
99
72
93
103
77
75
83
94
79
93
90
95
109
80
76
72
93
73
77
94
109
70
85
76
104
98
105
76
101
106
94
85
88
77
104
78
70
71
82
74
99
103
102
100
94
98
72
84
79
95
86
99
103
101
107
107
89
81
100
107
80
85
74
98
106
93
106
89
83
99
73
70
76
86
83
70
86
78
70
83
90
84
90
102
90
104
109
79
109
106
76
91
95
101
84
101
103
80
82
72
86
95
95
83
101
82
89
102
101
77
94
84
84
72
106
82
95
87
98
71
107
108
73
100
97
99
108
94
90
79
106
90
70
91
94
104
75
92
95
83
76
85
79
80
96
98
107
101
77
82
83
84
108
87
107
103
86
103
73
86
104
96
88
103
107
95
108
70
88
106
86
86
98
71
75
102
83
100
72
79
108
105
72
93
87
99
98
76
103
106
84
85
99
93
77
97
86
92
98
109
107
94
71
78
87
100
88
103
71
85
96
105
76
100
81
99
100
104
101
74
75
82
94
82
90
100
81
109
94
72
88
108
84
78
71
100
84
106
103
83
83
109
106
107
78
83
102
77
75
86
70
74
82
73
92
86
93
87
108
94
108
84
109
91
84
108
81
96
88
75
72
81
104
93
95
92
97
79
103
92
93
77
91
99
101
93
105
80
100
108
101
106
86
72
91
108
105
70
100
73
75
101
98
73
100
107
87
77
93
78
91
79
89
93
85
102
107
96
84
97
104
101
85
97
95
109
104
108
70
70
79
87
86
98
103
100
73
72
82
85
99
82
99
71
88
70
91
90
92
105
92
88
105
89
85
100
76
89
85
78
88
99
75
76
96
105
85
98
103
84
103
101
90
105
95
92
104
89
71
88
89
79
74
86
77
72
107
107
70
70
98
95
89
77
88
77
73
82
101
82
109
88
88
100
90
101
79
101
84
76
95
72
81
108
102
99
94
90
95
109
70
98
79
106
80
84
102
109
81
93
95
77
75
82
91
83
76
108
82
91
97
73
92
97
108
87
104
78
83
71
99
83
100
95
83
77
94
96
100
90
81
73
91
74
105
84
105
74
103
72
98
109
81
94
78
76
82
104
104
80
109
103
109
100
94
84
87
88
74
81
107
100
80
80
72
90
104
84
98
88
83
96
93
108
106
85
109
104
108
71
93
72
83
98
87
105
102
81
76
109
108
79
108
100
103
74
87
77
87
84
77
109
73
84
92
71
95
108
80
70
81
76
80
103
109
80
79
97
91
77
79
105
76
82
77
82
77
109
97
82
94
99
76
75
104
107
95
71
77
93
81
85
74
95
81
84
91
81
109
109
94
106
91
87
91
74
94
77
98
82
84
98
77
72
101
71
80
103
86
108
78
71
78
102
86
73
80
104
102
77
99
109
78
95
103
84
80
80
73
109
78
73
96
92
93
101
73
108
89
95
96
101
98
90
72
96
93
104
85
74
109
77
96
88
75
92
74
107
91
106
100
100
82
98
79
73
109
73
104
80
92
91
70
83
71
102
87
108
103
85
71
99
80
79
75
71
109
82
93
106
85
81
81
87
77
94
71
80
86
100
73
91
80
92
88
77
103
82
83
106
101
81
96
99
80
85
77
97
77
103
88
105
77
102
94
73
71
75
106
106
87
70
102
86
70
104
94
84
81
96
107
73
86
106
78
73
92
93
102
71
90
100
107
73
83
103
107
72
73
83
94
70
80
87
85
97
100
72
104
87
102
80
72
106
106
98
82
94
76
81
85
88
109
97
70
106
96
86
90
84
90
108
99
93
105
87
79
107
92
108
70
87
76
72
74
108
82
87
107
81
81
71
100
93
108
87
104
99
75
106
98
94
98
72
107
71
91
94
100
76
70
101
87
83
109
105
97
96
85
91
83
99
82
81
105
78
97
100
82
85
76
98
106
70
74
70
108
83
77
109
100
86
96
73
100
92
89
75
85
77
99
77
96
108
71
70
101
106
76
81
101
79
100
88
75
83
73
85
96
106
88
106
71
95
108
106
93
82
103
103
93
108
77
92
108
82
105
78
96
89
107
71
102
90
106
107
93
70
79
79
85
75
74
86
84
71
74
78
82
92
87
107
99
85
81
98
93
96
86
105
82
76
80
93
104
93
78
75
88
102
109
75
100
103
101
98
84
71
80
71
82
75
81
96
85
103
74
78
75
108
81
95
91
107
91
82
82
73
72
96
75
100
98
97
84
109
73
108
95
94
72
100
71
86
78
79
100
75
77
80
72
87
87
72
74
70
82
104
91
86
81
90
88
104
94
73
95
78
100
94
93
94
98
84
71
70
109
102
72
72
100
96
74
96
82
92
72
75
71
86
108
75
104
73
93
97
105
91
107
90
96
94
70
76
92
105
83
90
94
71
104
79
94
78
83
88
81
83
85
93
105
100
109
81
78
85
91
95
84
71
73
80
93
86
89
82
96
98
91
107
81
105
85
103
108
106
97
102
100
85
89
106
81
82
94
95
82
103
89
107
102
93
81
72
97
109
87
96
109
103
95
81
103
100
96
81
92
109
76
99
100
98
76
74
86
72
86
102
84
85
73
101
95
93
107
100
102
107
80
109
76
88
78
75
80
79
79
92
104
109
86
79
88
75
77
86
104
86
95
85
108
72
98
92
104
72
79
89
99
80
92
74
75
101
81
98
74
92
107
105
104
75
86
105
73
78
86
78
95
76
79
77
83
81
99
73
72
100
100
90
105
83
91
79
101
102
72
85
87
106
83
88
99
88
99
105
77
85
77
97
100
106
87
86
96
94
101
83
72
99
99
93
79
86
100
83
79
107
99
85
78
73
81
72
105
98
94
88
78
70
83
72
86
96
95
87
91
89
104
91
94
75
84
90
101
73
89
102
107
85
82
105
72
105
107
82
106
107
87
78
92
75
79
75
78
86
94
96
101
80
91
81
84
102
103
90
75
106
80
90
88
82
77
90
83
74
74
101
87
89
70
106
109
98
99
72
74
109
102
91
85
101
80
84
82
98
92
93
90
82
106
84
94
99
75
103
81
77
86
82
86
70
106
77
75
93
77
74
92
75
109
109
83
79
101
93
78
73
82
74
97
89
78
87
94
81
77
81
98
80
79
80
90
89
77
103
93
91
70
87
76
74
76
81
87
70
99
91
74
106
98
89
105
87
102
96
103
74
99
72
101
100
108
104
104
81
109
95
76
76
102
96
72
88
91
84
106
73
82
95
101
100
85
76
72
93
88
82
81
72
77
91
74
98
86
106
82
80
107
93
103
88
109
108
74
71
106
81
108
90
90
104
96
97
104
89
96
73
70
91
77
74
106
99
89
104
85
93
87
93
71
106
70
103
99
100
98
85
72
102
75
72
90
103
74
104
102
72
81
109
102
99
74
103
92
103
99
104
97
90
104
80
80
102
73
89
103
79
86
108
86
107
89
91
92
91
107
97
86
106
105
87
96
83
88
105
81
104
79
88
90
88
84
89
88
80
97
70
74
102
72
99
77
74
101
99
94
77
83
84
95
94
90
73
70
107
88
103
98
109
101
106
88
96
107
104
109
105
109
78
84
80
87
106
98
88
87
105
105
93
75
73
90
109
83
98
86
74
104
89
95
95
94
93
82
81
77
85
88
72
102
105
85
94
76
89
88
79
96
91
109
74
98
81
95
87
109
105
82
105
83
79
72
78
80
80
97
108
107
88
105
86
98
79
101
72
70
72
78
71
79
74
89
77
105
106
86
91
71
96
88
87
102
97
84
105
94
77
93
81
100
82
103
83
75
97
99
85
77
71
107
88
77
103
95
109
78
93
78
106
89
86
105
85
107
71
100
97
109
75
86
71
97
81
100
102
73
109
81
77
73
78
80
105
80
80
109
107
75
99
73
91
92
75
84
83
97
89
88
109
79
90
108
102
96
87
70
87
91
93
93
82
83
93
101
74
82
70
76
70
88
74
101
103
94
95
107
96
72
103
88
102
83
98
102
95
83
106
94
88
89
71
104
98
90
100
82
76
83
82
108
87
107
91
75
86
82
106
84
108
105
73
76
99
98
83
101
90
106
107
100
94
99
101
105
85
103
108
71
95
89
99
84
77
70
87
99
103
77
76
96
88
75
88
84
109
82
85
106
86
99
91
72
76
89
101
82
76
96
91
107
98
86
96
70
82
105
101
85
90
89
109
79
92
87
106
95
83
94
72
82
92
80
73
82
80
76
105
89
94
71
106
95
94
97
107
96
83
90
108
96
88
93
94
81
95
75
89
78
78
107
101
72
108
80
100
105
74
92
88
103
100
108
98
84
82
83
91
83
98
83
102
85
89
97
77
77
90
73
83
105
102
75
82
75
85
92
94
102
75
71
98
76
78
77
73
95
79
75
88
87
87
108
74
108
84
94
83
101
93
81
90
72
82
77
88
82
71
91
102
81
74
79
79
96
107
108
89
107
100
73
106
100
89
107
88
109
82
75
81
95
103
105
76
74
75
89
88
86
91
85
76
74
73
99
95
99
76
89
97
103
82
78
89
97
97
90
96
72
83
96
85
100
96
83
91
89
72
80
88
95
81
107
80
96
77
100
98
100
72
74
96
98
89
88
109
88
71
96
90
100
102
78
73
76
105
86
86
91
90
81
90
93
80
99
82
101
73
88
104
76
88
73
72
93
104
106
102
103
90
70
94
91
99
100
107
102
90
99
109
97
80
84
93
71
73
80
82
79
90
74
73
107
84
109
96
80
88
105
76
71
74
82
108
99
107
90
101
108
98
97
103
75
107
90
88
71
107
79
104
79
83
95
93
105
99
71
88
99
104
95
79
80
72
78
76
101
94
73
102
92
98
88
102
81
99
73
85
75
87
98
84
93
106
89
84
94
77
102
80
85
105
99
71
73
108
74
70
73
83
72
102
95
97
89
97
82
87
100
75
108
77
72
87
73
79
71
79
105
83
106
88
88
106
85
93
100
101
109
83
70
107
95
93
101
80
98
88
87
72
72
74
90
108
73
103
90
83
89
92
91
77
75
96
74
108
86
95
71
84
87
73
70
77
94
83
94
103
109
100
104
77
71
106
76
76
86
85
73
102
88
101
109
106
98
72
92
87
77
79
107
105
88
105
71
98
94
104
81
77
82
99
109
95
104
107
92
78
102
82
71
71
83
88
108
75
102
104
102
74
90
83
80
91
97
84
106
105
86
108
71
98
88
70
86
109
76
101
88
90
81
92
89
87
98
95
75
87
104
73
79
109
102
101
102
90
97
72
79
91
79
71
97
87
103
85
99
96
74
80
81
95
96
109
74
101
78
72
105
103
94
73
97
81
80
100
84
79
96
79
93
72
96
105
100
108
79
81
99
79
106
92
95
86
98
100
81
90
86
109
101
99
82
73
82
94
104
79
99
82
79
96
70
79
97
82
83
104
97
72
95
83
76
82
106
79
95
72
77
101
98
101
88
90
100
82
75
92
79
104
99
106
76
106
104
97
106
99
109
92
100
100
79
92
105
96
97
89
80
83
103
71
90
72
74
76
90
74
76
81
107
78
108
72
98
71
100
109
100
90
81
95
96
91
91
73
104
87
94
92
108
84
79
96
79
70
83
91
78
99
77
88
103
73
78
75
70
86
82
92
94
80
80
74
86
79
98
91
81
96
87
105
99
107
101
87
89
71
90
100
88
76
85
103
104
81
105
84
98
103
82
101
72
70
74
93
93
87
86
73
93
105
77
80
93
104
73
101
94
75
73
106
94
108
85
102
96
78
100
90
85
82
91
97
107
90
95
79
85
98
93
108
91
108
103
80
107
91
98
105
88
74
78
90
98
93
86
95
78
96
88
86
80
87
87
72
86
102
87
105
86
90
72
75
107
71
71
106
84
84
105
108
102
100
90
95
83
102
102
71
99
95
77
88
74
94
100
97
89
89
73
98
73
70
103
103
102
84
91
101
97
91
78
93
72
105
101
103
74
95
101
104
109
99
107
95
91
87
75
93
109
106
70
75
86
86
90
104
99
82
77
74
96
104
73
85
71
89
95
82
78
104
101
82
70
93
105
84
75
107
107
107
81
91
102
83
75
82
104
85
98
81
99
73
100
92
98
99
106
109
71
82
79
105
108
77
86
83
97
70
91
80
102
99
101
91
89
91
98
106
90
71
107
89
93
97
82
109
96
96
74
91
86
108
77
82
91
96
91
79
89
70
74
79
82
87
81
106
71
98
90
86
88
93
79
90
101
82
108
108
109
108
101
77
100
90
73
83
98
107
87
79
74
75
104
89
97
85
78
96
96
105
75
94
74
104
101
92
98
86
89
106
79
78
109
89
81
84
74
77
97
95
74
85
84
102
78
100
89
109
75
85
91
88
102
83
72
87
70
71
75
82
73
77
95
71
89
81
101
74
72
94
80
92
98
87
71
71
75
98
82
72
81
97
105
94
82
83
74
91
89
75
81
89
109
87
76
102
98
108
104
83
76
95
102
105
105
103
74
85
79
73
78
102
71
108
90
92
72
71
103
75
70
104
76
104
100
71
72
84
103
105
73
95
77
105
85
95
71
108
70
80
107
83
91
86
77
87
70
73
102
88
88
88
101
70
99
74
70
84
97
96
88
82
89
103
84
98
107
109
90
109
108
74
78
79
107
81
99
80
84
94
70
84
93
90
103
86
72
109
107
96
105
75
94
70
80
99
103
92
80
84
108
84
81
96
72
101
76
102
98
80
70
98
104
77
70
104
107
86
73
89
92
98
70
85
72
109
78
90
88
93
94
107
76
104
96
101
105
85
95
102
105
80
90
78
98
82
98
107
89
80
87
95
80
82
72
109
78
71
106
101
70
95
100
83
83
73
104
71
74
103
75
88
88
102
73
82
102
106
91
74
106
82
90
95
104
80
105
92
96
92
102
83
98
73
105
76
96
71
96
94
90
75
106
101
104
100
90
77
99
103
95
78
101
102
90
88
107
108
87
97
71
108
88
101
75
74
78
109
99
98
73
75
98
97
90
85
88
105
79
96
90
88
79
102
106
82
103
99
89
70
76
85
74
87
97
106
105
92
83
87
108
98
83
78
89
81
92
87
104
92
71
90
82
109
107
91
90
104
104
95
74
78
86
103
74
77
73
107
93
94
80
97
100
80
86
102
95
75
80
91
96
71
105
108
75
78
99
93
100
103
94
109
71
100
86
96
93
79
95
96
102
104
92
84
106
82
74
83
76
87
70
82
89
97
70
85
101
91
70
107
88
95
89
109
71
97
107
80
101
107
109
80
76
106
81
103
78
97
102
103
89
85
86
84
75
90
70
78
105
84
109
93
70
95
89
94
75
83
103
102
106
82
105
100
103
84
101
107
105
70
107
79
109
102
87
89
76
106
72
102
86
97
72
93
87
105
70
80
81
99
72
98
90
93
100
99
88
78
73
72
106
103
97
102
96
80
98
95
86
89
102
78
93
82
71
80
74
92
71
93
75
106
71
77
79
74
86
86
94
97
85
85
81
94
96
90
91
101
79
97
104
71
94
94
101
71
74
81
88
73
93
98
105
78
108
103
81
107
79
92
97
99
104
90
87
89
72
99
85
75
78
101
75
108
97
109
94
105
97
94
96
86
104
74
97
73
79
87
86
79
70
86
82
85
84
96
83
98
80
98
70
76
71
75
85
80
79
84
72
102
91
79
74
108
72
106
85
105
87
94
88
101
77
107
96
72
79
103
85
72
90
79
103
95
105
101
104
75
96
90
108
96
97
93
78
107
93
93
76
104
94
108
95
71
82
92
100
74
82
86
70
75
108
89
103
99
102
80
108
102
76
88
97
109
83
88
109
99
71
105
95
85
74
96
73
100
94
97
76
77
101
86
93
107
103
81
70
74
108
71
88
79
106
101
103
87
81
95
86
77
109
102
85
72
92
90
96
76
105
97
74
79
80
87
74
87
90
78
101
91
75
87
76
71
107
82
103
84
90
83
89
87
96
94
86
105
92
99
107
95
74
77
109
90
74
96
93
81
103
89
82
78
101
75
72
79
95
95
72
102
104
75
71
99
88
78
99
96
89
83
107
109
75
100
78
101
100
73
95
88
108
90
96
99
97
105
109
93
102
75
82
108
89
80
71
103
101
104
90
101
77
89
94
78
98
79
92
96
87
107
79
101
74
96
92
82
102
89
105
75
103
86
109
94
102
73
73
85
102
100
94
88
102
70
71
74
96
94
79
98
97
94
94
86
89
107
80
99
77
108
71
88
84
106
106
91
71
71
94
84
109
98
100
73
101
105
75
73
109
80
72
93
90
73
74
100
89
92
83
70
102
82
76
76
107
92
96
85
100
74
93
108
88
96
102
88
98
99
76
100
104
101
101
80
100
109
94
95
98
99
109
108
89
90
98
86
109
71
80
91
100
73
70
108
88
97
107
93
100
92
105
81
99
70
97
107
101
106
71
104
107
71
79
99
109
101
96
88
106
89
73
109
104
84
105
78
77
83
99
81
85
91
74
97
100
83
73
86
94
87
79
77
109
97
80
76
76
82
79
81
82
90
99
84
88
109
71
81
102
79
103
74
107
72
104
77
100
107
95
98
103
84
101
80
96
96
73
80
100
90
70
105
84
99
86
70
92
81
103
109
93
84
102
82
95
93
74
75
83
79
74
77
80
90
105
71
76
85
80
77
102
109
77
72
90
108
91
76
92
83
82
74
72
106
72
79
89
87
104
93
81
102
90
96
81
97
92
84
105
96
95
101
98
82
108
70
106
92
105
78
80
73
87
72
72
91
102
107
81
97
75
106
93
73
104
108
89
104
100
101
70
80
102
102
88
105
108
92
109
76
72
109
71
91
70
104
77
101
95
84
95
80
82
81
89
104
107
95
90
80
100
92
109
86
75
106
87
99
108
88
74
107
89
87
90
106
71
72
87
88
75
84
106
103
77
76
99
74
75
82
98
72
89
80
108
105
104
96
88
96
101
83
83
90
99
102
73
94
91
105
101
85
83
90
83
92
84
82
92
79
89
78
105
89
85
97
76
106
92
80
107
87
93
102
102
104
78
72
84
94
89
84
81
100
86
78
106
103
80
91
100
89
76
98
73
106
95
103
92
96
80
97
96
73
78
95
108
78
107
87
98
91
81
103
105
76
100
104
87
90
88
103
74
109
76
93
73
108
96
90
94
100
91
77
79
70
96
95
93
108
81
74
93
100
108
