berlin52
52
1 565.0 575.0
2 25.0 185.0
3 345.0 750.0
4 945.0 685.0
5 845.0 655.0
6 880.0 660.0
7 25.0 230.0
8 525.0 1000.0
9 580.0 1175.0
10 650.0 1130.0
11 1605.0 620.0 
12 1220.0 580.0
13 1465.0 200.0
14 1530.0 5.0
15 845.0 680.0
16 725.0 370.0
17 145.0 665.0
18 415.0 635.0
19 510.0 875.0  
20 560.0 365.0
21 300.0 465.0
22 520.0 585.0
23 480.0 415.0
24 835.0 625.0
25 975.0 580.0
26 1215.0 245.0
27 1320.0 315.0
28 1250.0 400.0
29 660.0 180.0
30 410.0 250.0
31 420.0 555.0
32 575.0 665.0
33 1150.0 1160.0
34 700.0 580.0
35 685.0 595.0
36 685.0 610.0
37 770.0 610.0
38 795.0 645.0
39 720.0 635.0
40 760.0 650.0
41 475.0 960.0
42 95.0 260.0
43 875.0 920.0
44 700.0 500.0
45 555.0 815.0
46 830.0 485.0
47 1170.0 65.0
48 830.0 610.0
49 605.0 625.0
50 595.0 360.0
51 1340.0 725.0
52 1740.0 245.0
85
101
76
108
102
103
107
72
83
75
103
104
75
90
82
76
81
79
109
70
91
105
97
97
93
90
75
82
95
95
96
93
101
73
74
81
85
90
81
78
70
108
85
109
95
79
90
81
78
74
77
93
106
108
87
86
107
99
80
75
72
85
70
106
81
93
109
92
71
72
105
84
73
72
74
84
80
88
71
88
108
98
79
87
88
102
99
88
76
75
80
105
98
83
92
102
83
106
78
79
99
95
107
82
106
103
87
108
84
109
89
82
108
102
90
85
76
77
78
77
72
98
92
93
92
73
75
87
90
96
93
105
89
72
81
89
82
72
91
109
109
102
103
70
76
72
86
94
70
90
80
71
95
104
91
70
109
71
90
88
78
103
82
75
88
107
105
80
106
76
103
80
105
83
98
93
85
94
92
90
94
101
80
77
81
101
109
100
95
100
98
102
79
94
75
76
90
96
99
71
88
83
75
83
106
91
97
93
88
97
84
97
108
109
71
72
70
104
84
79
73
89
75
107
109
70
107
108
102
102
88
71
94
93
94
105
87
79
77
88
107
72
109
108
88
76
84
87
102
98
94
80
82
94
76
86
104
88
104
83
100
71
71
71
82
73
72
103
72
95
109
85
104
93
104
90
82
80
80
74
73
83
75
103
84
83
70
104
96
90
106
98
77
89
73
87
102
97
99
87
101
75
106
85
70
70
76
92
106
74
82
81
103
75
92
74
78
80
72
79
70
84
75
104
103
101
102
96
89
91
108
88
94
107
100
87
109
77
98
89
72
98
99
93
72
74
81
91
96
93
99
85
80
72
72
78
91
83
109
89
99
88
70
75
99
78
98
83
76
88
98
105
100
72
98
109
93
71
105
97
82
81
94
82
71
100
76
106
73
82
87
98
84
96
79
95
100
78
108
106
101
71
75
76
103
99
88
105
108
84
76
85
84
93
74
76
76
106
100
86
90
75
99
99
108
99
71
76
89
73
76
107
71
84
93
107
95
100
85
106
87
103
100
101
86
73
86
77
109
104
83
90
76
79
106
93
99
104
79
106
106
80
79
94
106
70
74
109
102
99
96
95
92
81
102
83
89
93
107
101
84
79
103
76
73
100
100
87
81
97
87
82
103
98
72
91
70
84
87
90
82
88
74
72
85
105
77
79
83
73
105
98
71
102
104
94
87
99
88
90
78
76
86
99
73
81
77
107
84
87
71
91
93
99
74
86
104
97
71
88
109
108
103
78
80
87
79
88
88
99
70
77
98
74
77
85
102
91
86
77
74
87
95
79
77
76
97
72
103
95
84
102
72
79
86
81
102
72
108
104
90
94
103
88
85
106
91
73
87
73
76
98
97
107
106
86
84
82
79
94
73
100
93
89
98
98
85
89
97
106
78
80
87
98
83
75
71
102
97
86
85
75
79
88
81
85
102
104
81
70
99
104
70
72
74
74
109
93
85
80
80
85
70
79
102
104
105
95
105
76
102
84
86
89
86
81
107
91
75
78
100
96
77
95
102
83
90
104
79
96
86
93
77
97
99
78
95
88
106
107
81
101
107
108
76
83
106
85
85
78
106
88
101
72
70
99
73
101
70
99
82
107
87
81
95
93
86
100
106
90
70
71
81
73
104
77
70
88
82
82
89
78
91
84
100
86
102
82
87
109
93
107
85
85
88
75
94
91
102
89
95
101
76
100
71
72
92
71
100
97
71
90
101
99
101
92
89
89
84
70
72
100
96
97
95
95
90
83
82
89
76
94
86
90
100
73
77
106
103
107
85
102
72
77
99
77
89
87
76
90
97
70
100
74
86
84
82
97
85
89
92
88
80
105
95
90
79
70
82
86
82
96
91
103
70
73
82
91
94
109
77
81
84
74
99
95
88
93
109
91
104
102
106
88
97
108
98
90
77
92
77
102
93
94
101
84
73
104
105
94
101
71
76
102
102
107
101
75
78
91
104
84
92
81
101
96
88
87
103
101
101
74
104
72
96
77
99
84
96
97
82
70
102
92
81
89
71
72
107
93
79
78
107
94
72
82
94
106
76
73
87
74
80
96
98
108
89
86
93
81
91
93
76
83
80
93
77
105
86
74
83
70
84
102
86
87
109
98
91
108
78
106
96
72
109
86
107
84
99
72
83
73
84
75
87
93
99
72
94
80
99
79
71
103
92
76
98
104
75
72
101
103
77
74
108
96
77
101
107
95
108
84
102
85
104
107
75
107
89
87
94
100
79
89
101
109
80
103
101
81
81
92
109
91
98
82
89
90
87
84
98
108
101
96
76
92
106
77
104
86
71
90
99
102
98
95
71
99
71
80
104
89
80
79
74
95
93
81
105
86
85
100
104
92
77
94
94
88
88
90
102
78
104
95
103
85
83
74
91
104
82
109
75
106
79
104
91
77
93
87
74
76
84
76
93
79
108
70
109
87
90
105
102
75
105
80
80
107
83
105
91
91
105
72
79
82
71
103
98
91
74
93
94
75
86
108
82
93
76
79
87
82
81
75
94
85
77
77
80
86
106
108
78
109
99
105
98
106
79
85
70
106
94
89
76
85
75
84
77
85
99
72
78
81
109
94
71
100
98
92
102
103
87
108
92
94
80
86
94
90
96
81
87
90
86
70
99
80
98
85
71
89
105
84
80
108
109
108
98
79
80
79
82
94
90
72
77
70
105
105
89
90
73
83
109
99
109
73
101
77
76
86
89
79
71
96
87
107
106
101
101
103
104
93
75
99
100
88
81
84
86
82
109
73
107
91
80
84
89
84
105
75
88
79
89
88
76
70
89
85
99
71
97
92
98
95
75
70
101
92
72
82
70
87
81
96
94
82
72
95
82
78
87
76
103
89
81
100
81
86
104
99
97
92
79
102
109
100
105
94
76
77
106
70
106
106
109
71
105
79
109
98
73
72
87
70
97
83
80
98
86
86
107
85
107
84
86
100
74
84
94
85
74
82
79
97
98
106
96
70
84
99
71
94
86
97
105
74
85
77
85
100
82
88
74
99

