eil76
76
1 22 22
2 36 26
3 21 45
4 45 35
5 55 20
6 33 34
7 50 50
8 55 45
9 26 59
10 40 66
11 55 65
12 35 51
13 62 35
14 62 57
15 62 24
16 21 36
17 33 44
18 9 56
19 62 48
20 66 14
21 44 13
22 26 13
23 11 28
24 7 43
25 17 64
26 41 46
27 55 34
28 35 16
29 52 26
30 43 26
31 31 76
32 22 53
33 26 29
34 50 40
35 55 50
36 54 10
37 60 15
38 47 66
39 30 60
40 30 50
41 12 17
42 15 14
43 16 19
44 21 48
45 50 30
46 51 42
47 50 15
48 48 21
49 12 38
50 15 56
51 29 39
52 54 38
53 55 57
54 67 41
55 10 70
56 6 25
57 65 27
58 40 60
59 70 64
60 64 4
61 36 6
62 30 20
63 20 30
64 15 5
65 50 70
66 57 72
67 45 42
68 38 33
69 50 4
70 66 8
71 59 5
72 35 60
73 27 24
74 40 20
75 40 37
76 40 40
106
94
103
109
104
88
71
80
70
86
109
88
100
89
79
104
90
74
101
73
73
107
77
104
100
103
77
91
103
94
107
92
94
70
90
92
98
95
94
100
96
85
74
96
98
84
88
109
97
95
97
101
75
89
93
72
82
96
93
93
78
94
102
98
84
98
73
88
86
71
98
106
109
99
78
79
108
82
80
78
87
108
109
82
84
84
70
86
88
107
94
74
101
93
77
71
107
98
100
72
101
95
106
89
93
94
87
100
106
75
95
74
81
89
80
71
90
93
80
81
109
72
105
90
101
107
70
76
107
86
107
92
94
105
79
106
97
79
93
104
93
72
76
81
89
78
92
77
71
82
98
98
106
103
102
92
85
103
82
104
100
94
85
85
105
76
89
101
80
78
98
75
100
87
89
76
70
91
87
99
75
76
102
80
93
73
108
89
109
99
73
84
87
106
76
91
102
96
72
97
106
84
85
76
79
89
84
99
73
72
91
98
84
76
74
76
104
108
77
104
77
94
75
87
83
74
94
77
70
109
108
86
80
87
93
107
71
71
94
93
88
101
102
89
92
80
71
85
99
97
79
98
70
80
87
74
81
102
92
92
104
83
84
109
73
88
107
73
75
103
87
91
70
74
104
81
107
90
93
84
76
89
107
103
95
89
95
101
72
102
93
79
93
82
81
86
93
72
87
78
83
91
71
108
96
71
107
90
87
96
83
105
85
74
105
86
73
97
105
95
72
91
83
79
108
98
76
88
109
70
89
97
80
98
77
89
88
77
109
107
106
76
99
107
94
94
72
87
106
89
102
73
81
107
84
92
101
107
82
92
104
97
72
83
97
91
75
98
77
74
88
101
100
93
99
82
101
84
106
91
77
103
109
90
92
71
81
93
72
93
86
106
102
83
94
76
94
88
103
86
79
96
106
71
75
106
100
71
84
100
109
90
95
76
88
99
88
72
82
82
70
81
71
105
104
107
105
91
96
72
74
94
87
101
92
74
73
85
70
90
106
77
74
75
82
73
101
75
109
109
79
76
86
93
76
97
85
104
82
72
70
99
75
81
84
75
77
86
101
109
97
99
72
73
105
103
109
100
85
91
92
101
80
91
88
75
102
75
85
92
105
76
104
97
92
71
102
72
79
82
72
90
100
80
109
103
98
93
72
86
80
75
92
74
108
70
101
97
109
95
104
102
85
95
102
98
83
98
94
78
104
94
89
92
81
76
105
103
108
86
92
96
102
90
85
83
100
78
100
89
81
76
87
78
104
80
89
78
82
72
82
92
89
91
80
91
102
85
76
81
88
98
72
105
103
96
79
71
96
99
93
97
97
83
81
108
96
104
104
85
87
97
77
82
90
89
93
72
100
75
95
77
79
72
92
80
90
71
107
80
88
92
73
91
95
83
87
81
78
86
108
79
83
102
84
88
75
95
97
105
99
88
105
91
79
105
104
95
97
100
72
85
108
89
87
70
89
101
96
83
98
107
75
101
93
71
73
86
100
86
83
71
74
97
83
100
88
100
77
77
90
106
103
70
99
83
95
90
80
105
92
91
107
87
71
93
79
75
75
108
100
101
91
98
91
88
107
94
76
74
83
74
101
79
87
107
71
90
73
71
76
70
107
81
107
89
96
96
103
90
83
90
108
93
90
83
76
109
92
82
73
74
80
78
92
107
80
76
102
109
102
109
92
84
78
102
72
74
92
71
102
86
95
88
100
86
79
96
94
72
99
89
81
93
94
97
94
103
106
90
89
77
101
76
82
76
92
88
91
97
85
80
76
84
89
102
76
87
82
99
73
80
90
97
106
82
108
75
106
91
102
99
103
81
103
84
100
78
85
89
100
70
83
85
73
79
81
93
92
105
100
75
109
77
80
76
84
82
107
76
73
70
83
96
82
106
83
85
99
97
106
79
99
91
84
77
84
101
70
83
99
91
84
95
97
104
109
88
105
109
97
76
107
105
81
98
104
96
81
95
87
94
106
84
72
70
74
71
86
86
88
73
106
101
82
81
78
81
97
95
87
90
80
83
88
91
73
79
90
106
81
82
104
85
93
103
82
71
101
109
72
107
95
72
105
97
71
104
76
95
77
96
80
74
96
98
79
85
98
73
80
96
76
95
101
77
92
72
74
103
91
70
80
92
108
102
72
93
74
108
83
99
81
75
90
84
103
87
106
78
100
102
106
91
73
108
80
94
85
102
72
78
78
74
102
96
86
85
71
89
91
109
75
108
91
104
78
97
87
107
79
71
104
96
96
99
72
98
87
73
107
107
108
83
85
105
100
104
85
108
101
94
82
83
92
99
85
79
83
96
72
87
95
80
109
70
81
71
90
98
99
86
83
78
101
70
73
75
72
107
73
106
84
100
104
70
77
79
86
104
75
82
80
90
74
72
91
95
102
96
78
98
83
76
71
71
93
73
88
96
84
90
107
97
90
82
84
70
79
81
95
91
84
71
89
91
103
87
91
93
103
102
108
108
105
76
86
102
90
89
77
80
86
84
75
80
72
80
103
107
98
81
78
88
71
70
99
92
88
94
100
103
84
96
93
95
75
77
89
108
77
105
93
99
78
90
95
79
101
72
71
109
102
70
94
87
108
79
100
92
99
101
102
85
77
70
72
107
107
96
70
103
102
95
98
74
86
108
73
70
91
80
86
76
106
89
84
80
75
100
70
98
105
84
73
79
105
105
77
103
71
77
79
72
101
91
83
107
93
105
104
85
104
88
108
73
72
73
82
83
84
90
96
80
74
81
86
109
82
73
76
109
71
83
100
103
97
86
80
79
98
90
77
84
102
73
96
106
70
87
87
89
94
76
99
109
85
103
92
87
78
77
94
108
101
74
107
109
91
104
98
71
70
70
94
107
107
106
74
97
85
106
75
80
90
72
102
73
100
108
76
77
70
78
74
84
87
76
102
104
100
104
88
73
89
102
109
90
95
100
82
108
101
83
95
82
104
86
105
108
101
97
108
72
97
99
105
85
79
102
93
98
89
87
82
71
98
89
90
98
100
87
89
109
78
90
106
109
88
103
92
86
89
101
87
94
89
109
90
80
75
91
78
97
77
100
97
80
107
96
108
97
96
82
93
75
71
78
92
99
74
75
88
104
88
72
90
88
76
100
101
107
108
72
91
95
95
72
100
75
106
107
83
97
85
78
97
93
97
87
70
99
109
105
100
88
98
92
103
103
75
87
98
79
81
88
76
83
86
90
83
106
105
73
103
88
105
82
106
101
77
79
87
100
82
73
73
79
95
78
85
73
78
70
98
100
84
73
71
92
83
91
70
92
101
106
97
88
109
71
90
106
104
99
87
96
82
101
77
78
78
81
108
104
93
106
84
75
99
75
86
92
94
99
78
105
89
95
96
87
104
101
72
100
109
78
102
102
98
98
98
75
104
83
109
90
96
99
80
98
71
87
96
98
87
89
98
97
108
72
92
103
76
107
85
83
83
102
93
78
109
75
72
96
93
76
94
73
102
104
79
99
72
85
86
86
94
94
91
84
109
92
85
87
87
105
72
71
81
75
107
104
98
78
85
75
93
93
106
100
104
106
88
84
102
76
87
88
74
105
104
90
85
76
76
102
98
96
97
80
72
70
81
108
88
83
83
78
96
102
78
91
94
89
91
71
73
109
99
88
108
75
73
75
76
80
73
94
85
104
96
94
88
87
86
90
88
107
98
95
77
70
108
70
96
92
97
75
88
79
90
94
76
83
70
87
98
87
106
78
104
72
78
73
89
85
74
98
74
86
96
96
101
86
91
93
78
75
73
95
108
91
93
75
98
82
72
79
79
73
81
102
83
97
74
98
75
96
93
93
78
91
103
104
72
77
76
104
95
103
91
85
77
89
91
85
78
95
102
89
106
95
109
94
77
90
84
87
93
82
104
89
91
99
86
79
78
108
102
79
109
72
79
84
99
96
76
93
95
75
80
102
109
81
95
94
87
100
109
97
88
73
98
71
99
109
94
77
95
75
81
90
86
109
102
108
86
105
89
76
103
78
79
87
94
86
85
78
81
95
76
81
100
77
107
72
76
74
86
74
74
81
109
105
83
95
72
109
101
75
81
88
92
95
106
98
102
79
97
87
75
82
97
94
89
103
92
82
71
106
102
78
89
78
75
100
99
93
83
79
89
70
101
99
95
87
105
97
108
84
99
95
101
86
109
95
79
78
84
71
84
100
78
89
90
92
82
84
96
80
81
90
106
76
75
75
87
93
109
99
90
83
90
71
78
82
87
94
109
91
75
93
91
96
79
99
70
80
98
95
80
80
73
71
104
83
109
90
70
90
93
79
78
103
102
96
103
102
71
82
85
94
90
102
99
103
96
108
100
93
108
86
84
108
83
84
91
75
98
103
106
77
81
79
89
102
71
104
88
84
78
98
77
102
72
73
109
89
73
101
86
72
95
82
84
84
96
90
99
85
99
89
101
87
74
106
91
105
78
73
81
98
91
80
78
100
77
102
89
85
75
84
98
84
107
98
104
89
79
90
95
104
103
74
109
88
71
104
84
71
81
89
106
104
70
83
103
79
106
108
79
108
101
75
90
87
105
77
72
99
72
90
88
78
102
105
82
71
80
73
100
97
107
74
90
71
87
91
74
72
101
101
87
94
71
80
108
97
80
109
99
89
100
99
78
100
105
78
86
85
77
101
90
86
81
91
107
103
79
96
77
71
97
104
104
82
98
93
80
99
80
105
98
108
106
78
97
84
86
105
87
105
95
100
95
71
85
108
75
103
77
98
73
83
83
109
100
96
101
72
88
109
82
104
109
108
82
74
88
70
103
98
71
100
93
102
91
83
102
92
99
71
98
97
70
108
77
93
97
105
80
75
82
70
101
100
76
79
77
94
93
82
100
89
92
93
72
91
94
83
85
109
99
105
101
78
100
83
86
78
72
93
76
93
88
95
105
108
79
104
106
108
94
94
92
103
87
109
86
84
80
71
73
78
98
99
94
95
91
88
86
97
81
75
96
94
80
95
78
80
101
93
89
107
84
93
79
98
79
84
89
87
72
86
98
95
89
85
93
85
74
106
86
94
91
100
84
85
107
79
77
88
104
95
91
83
87
101
77
107
70
89
89
101
104
72
72
72
97
72
83
105
90
74
85
86
96
87
97
100
80
103
77
100
102
109
70
108
94
87
71
75
82
84
76
95
86
95
84
74
80
107
87
97
91
103
83
71
78
101
93
106
89
78
79
85
80
88
109
70
91
98
100
88
76
102
76
91
75
80
85
91
94
87
89
71
77
90
105
107
70
77
83
87
108
108
105
105
77
95
85
73
92
78
84
84
108
71
89
83
102
70
84
108
85
92
74
97
72
75
102
104
104
80
104
108
106
98
85
105
103
99
104
109
90
93
80
109
106
102
81
94
97
95
87
77
76
97
81
73
75
73
98
88
83
94
78
103
99
96
107
70
108
99
85
98
109
77
103
77
109
84
94
75
90
91
72
71
90
87
86
86
80
109
78
89
89
70
92
81
87
101
81
86
109
97
108
89
109
78
105
91
103
81
95
92
98
107
71
72
72
77
97
88
109
86
73
93
88
81
90
82
101
106
81
91
90
106
102
96
89
73
87
70
70
100
109
104
105
79
106
82
78
84
99
102
107
101
83
99
73
86
97
107
87
87
91
75
75
104
90
104
98
78
88
104
75
85
87
103
71
102
75
75
75
76
83
98
105
73
101
75
108
86
104
74
107
83
101
72
72
99
88
90
73
76
92
88
102
93
93
73
76
89
106
85
105
76
106
107
97
107
70
101
97
80
79
73
106
78
105
73
96
74
73
100
108
91
75
70
78
76
104
78
79
95
93
79
78
100
87
105
97
82
94
105
87
85
79
102
76
97
71
101
84
102
84
88
107
109
78
90
93
97
102
94
105
73
78
81
99
101
98
85
91
87
101
87
72
77
87
75
72
100
101
86
100
79
89
101
104
79
108
92
89
85
89
89
106
94
100
107
72
71
107
85
100
74
84
87
106
95
87
86
80
94
85
91
104
91
73
90
81
100
78
84
107
103
105
71
74
87
80
100
109
81
99
74
103
98
82
73
86
100
88
97
82
88
70
92
80
85
75
105
87
98
106
106
75
80
93
73
81
76
73
70
74
84
97
108
83
96
88
93
99
99
97
99
87
97
73
81
107
99
87
97
98
105
90
71
96
104
109
85
70
76
79
96
94
95
94
84
95
75
76
108
91
84
82
84
87
98
101
98
75
102
94
106
106
106
70
97
92
102
73
93
82
96
74
99
98
107
96
72
85
100
80
84
108
97
83
100
82
106
98
103
70
93
94
108
87
101
85
106
85
82
98
71
86
103
107
101
94
88
73
106
99
106
76
70
80
72
85
99
103
75
72
104
109
97
90
95
80
73
87
96
76
102
79
77
79
74
81
103
74
101
97
104
73
86
70
75
109
73
95
73
71
106
80
86
