kroA200
200
1 1357 1905
2 2650 802
3 1774 107
4 1307 964
5 3806 746
6 2687 1353
7 43 1957
8 3092 1668
9 185 1542
10 834 629
11 40 462
12 1183 1391
13 2048 1628
14 1097 643
15 1838 1732
16 234 1118
17 3314 1881
18 737 1285
19 779 777
20 2312 1949
21 2576 189
22 3078 1541
23 2781 478
24 705 1812
25 3409 1917
26 323 1714
27 1660 1556
28 3729 1188
29 693 1383
30 2361 640
31 2433 1538
32 554 1825
33 913 317
34 3586 1909
35 2636 727
36 1000 457
37 482 1337
38 3704 1082
39 3635 1174
40 1362 1526
41 2049 417
42 2552 1909
43 3939 640
44 219 898
45 812 351
46 901 1552
47 2513 1572
48 242 584
49 826 1226
50 3278 799
51 86 1065
52 14 454
53 1327 1893
54 2773 1286
55 2469 1838
56 3835 963
57 1031 428
58 3853 1712
59 1868 197
60 1544 863
61 457 1607
62 3174 1064
63 192 1004
64 2318 1925
65 2232 1374
66 396 828
67 2365 1649
68 2499 658
69 1410 307
70 2990 214
71 3646 1018
72 3394 1028
73 1779 90
74 1058 372
75 2933 1459
76 3099 173
77 2178 978
78 138 1610
79 2082 1753
80 2302 1127
81 805 272
82 22 1617
83 3213 1085
84 99 536
85 1533 1780
86 3564 676
87 29 6
88 3808 1375
89 2221 291
90 3499 1885
91 3124 408
92 781 671
93 1027 1041
94 3249 378
95 3297 491
96 213 220
97 721 186
98 3736 1542
99 868 731
100 960 303
101 1380 939
102 2848 96
103 3510 1671
104 457 334
105 3888 666
106 984 965
107 2721 1482
108 1286 525
109 2716 1432
110 738 1325
111 1251 1832
112 2728 1698
113 3815 169
114 3683 1533
115 1247 1945
116 123 862
117 1234 1946
118 252 1240
119 611 673
120 2576 1676
121 928 1700
122 53 857
123 1807 1711
124 274 1420
125 2574 946
126 178 24
127 2678 1825
128 1795 962
129 3384 1498
130 3520 1079
131 1256 61
132 1424 1728
133 3913 192
134 3085 1528
135 2573 1969
136 463 1670
137 3875 598
138 298 1513
139 3479 821
140 2542 236
141 3955 1743
142 1323 280
143 3447 1830
144 2936 337
145 1621 1830
146 3373 1646
147 1393 1368
148 3874 1318
149 938 955
150 3022 474
151 2482 1183
152 3854 923
153 376 825
154 2519 135
155 2945 1622
156 953 268
157 2628 1479
158 2097 981
159 890 1846
160 2139 1806
161 2421 1007
162 2290 1810
163 1115 1052
164 2588 302
165 327 265
166 241 341
167 1917 687
168 2991 792
169 2573 599
170 19 674
171 3911 1673
172 872 1559
173 2863 558
174 929 1766
175 839 620
176 3893 102
177 2178 1619
178 3822 899
179 378 1048
180 1178 100
181 2599 901
182 3416 143
183 2961 1605
184 611 1384
185 3113 885
186 2597 1830
187 2586 1286
188 161 906
189 1429 134
190 742 1025
191 1625 1651
192 1187 706
193 1787 1009
194 22 987
195 3640 43
196 3756 882
197 776 392
198 1724 1642
199 198 1810
200 3950 1558
74
108
107
98
107
81
100
73
72
74
81
79
71
86
90
87
82
71
87
101
91
88
106
83
88
79
82
98
95
79
81
107
99
89
88
70
95
84
90
91
106
90
79
104
109
77
106
99
105
82
100
95
84
76
106
108
85
84
109
106
102
80
97
102
82
90
88
105
95
83
95
77
93
96
73
106
95
83
107
104
82
84
89
85
108
74
95
81
87
84
105
72
70
109
71
87
79
88
75
83
90
72
85
103
105
84
89
77
80
97
103
79
70
95
84
93
100
88
103
97
86
95
95
82
72
70
99
78
108
82
97
76
97
107
99
88
101
102
102
104
86
77
93
103
101
107
71
104
100
88
108
94
89
83
77
73
84
97
100
75
70
97
82
83
107
98
96
106
81
71
72
76
81
74
77
106
101
102
72
94
99
105
77
86
89
90
101
100
105
104
93
101
95
76
102
89
105
103
94
75
102
70
72
106
90
101
71
70
97
90
105
102
106
100
74
98
78
92
77
93
72
98
83
93
79
99
101
102
90
81
92
108
84
100
76
88
89
72
107
92
103
87
80
98
72
72
98
90
79
103
79
74
80
95
87
84
70
86
71
98
95
97
98
77
82
71
85
94
77
98
106
108
88
99
87
72
70
109
87
109
84
93
82
109
74
104
73
103
107
102
93
77
80
70
80
77
73
82
99
86
70
99
82
94
83
80
85
105
91
76
96
101
70
85
78
76
78
76
89
73
78
82
85
102
100
72
86
94
97
82
79
70
94
92
84
106
73
77
90
77
88
83
101
72
109
104
107
79
75
84
80
105
72
98
104
79
108
95
108
78
105
97
79
104
74
100
97
79
89
91
86
100
108
92
103
95
88
77
89
104
89
70
76
70
97
79
87
78
87
108
98
78
81
70
93
82
77
107
79
94
84
81
97
93
104
103
100
74
104
84
80
101
90
108
78
73
88
104
97
84
94
78
80
70
106
89
95
109
101
82
87
87
105
103
75
98
100
99
85
81
76
101
96
80
107
78
71
74
78
77
77
104
104
102
79
85
84
91
87
104
82
104
98
74
73
77
84
89
87
96
82
83
85
73
89
71
71
82
86
97
82
103
93
108
94
98
101
101
78
83
75
85
101
109
95
95
108
108
100
83
106
94
100
90
99
87
75
99
99
82
98
93
93
101
79
102
71
100
75
108
105
97
93
106
70
90
101
85
97
75
83
79
76
102
97
92
109
80
70
107
90
86
77
87
94
71
101
103
84
76
74
75
76
85
100
96
84
70
102
77
105
74
90
95
70
79
91
98
99
82
91
97
90
84
78
96
94
70
78
95
101
72
105
74
104
72
80
87
104
105
97
79
107
98
71
97
103
89
104
108
70
104
80
107
83
94
77
70
85
73
82
94
81
90
103
104
92
81
73
71
89
76
102
107
72
106
108
86
104
85
82
105
94
103
79
90
86
107
89
73
106
80
97
108
97
106
94
95
97
81
71
79
104
94
109
105
79
98
87
78
89
98
96
107
90
105
86
86
91
92
92
83
85
83
83
88
84
86
93
101
79
95
74
73
85
95
78
81
73
91
82
105
73
104
73
88
75
84
71
95
73
72
109
82
80
91
72
75
91
88
107
99
77
83
106
107
87
79
73
74
86
100
99
103
80
103
87
97
81
91
88
93
81
95
101
80
104
87
88
85
86
87
98
105
100
85
103
94
94
95
70
85
77
93
108
103
88
88
97
86
91
75
83
87
99
73
90
107
88
88
84
78
100
76
97
79
83
94
73
74
99
86
93
106
70
87
100
107
102
90
79
78
73
94
87
86
93
95
109
100
94
100
106
86
93
78
72
85
91
85
89
94
102
109
102
97
91
73
83
81
101
70
89
107
92
92
92
106
106
80
86
98
82
109
91
100
98
109
103
82
107
106
77
108
78
106
74
81
97
91
104
89
83
75
95
75
92
99
105
75
104
92
109
87
101
107
88
97
75
97
70
95
108
70
78
106
84
95
95
108
99
102
93
101
96
97
105
103
104
101
96
105
104
76
107
73
79
92
87
70
87
75
85
108
77
72
77
97
79
84
70
72
79
88
81
108
93
104
79
95
105
81
88
99
73
103
102
73
87
82
82
80
79
106
77
105
104
97
88
105
104
87
72
102
85
100
84
101
98
97
82
107
102
88
98
82
75
101
104
95
94
85
103
74
74
78
92
78
98
87
105
89
95
90
99
94
102
103
103
73
70
91
104
82
88
104
84
78
88
71
79
99
91
91
80
75
105
72
83
82
93
92
71
75
107
93
105
71
82
91
104
96
98
95
82
94
71
91
95
71
102
92
93
108
87
102
76
98
92
103
99
70
105
79
89
101
77
102
73
75
88
87
96
90
109
83
73
77
90
81
75
77
77
92
81
76
105
109
90
80
98
92
98
90
93
97
81
72
108
87
98
88
81
91
87
70
96
97
83
96
81
89
88
72
102
88
75
97
74
105
92
101
91
109
90
86
106
97
94
92
105
71
78
79
92
104
70
70
98
97
106
87
93
99
95
79
80
79
90
84
98
89
105
105
89
108
73
82
88
103
88
73
99
87
92
96
90
77
83
80
108
81
101
105
102
95
86
107
85
81
104
85
104
109
81
99
73
80
97
93
94
91
95
78
75
102
108
99
74
98
72
77
77
75
91
88
91
78
87
100
74
78
76
99
101
78
92
109
78
106
81
89
108
70
91
101
80
76
70
79
85
88
83
85
79
102
70
90
85
87
96
106
97
103
94
88
72
82
98
101
85
73
72
84
75
95
108
108
107
105
90
86
74
94
94
103
87
83
77
88
76
98
99
92
98
83
102
90
82
99
75
92
97
93
80
95
107
79
106
100
92
70
72
78
83
84
80
93
95
89
96
98
87
103
95
84
77
99
101
106
98
81
104
82
96
95
104
98
75
101
102
77
74
106
104
88
101
75
72
85
79
104
79
79
86
87
108
80
73
102
97
80
81
91
103
103
98
102
80
100
100
81
86
78
70
70
75
99
106
106
104
88
87
104
106
89
98
90
73
97
94
76
75
100
70
105
105
98
105
90
80
71
102
83
107
105
87
88
103
97
82
73
87
94
101
82
89
102
99
86
80
95
93
93
83
77
90
83
95
92
74
91
80
97
79
84
94
100
78
75
85
80
108
88
77
71
92
109
92
79
96
93
96
81
70
82
82
76
93
98
87
77
71
82
97
107
98
83
85
80
90
84
102
106
97
104
90
82
106
82
91
100
90
102
73
105
88
106
70
97
78
85
99
77
104
102
81
101
77
72
90
109
84
77
72
109
81
88
102
88
104
96
102
109
96
90
91
93
108
93
73
84
86
92
81
108
85
103
89
94
81
76
107
106
83
109
85
90
75
89
73
73
93
87
78
89
107
87
94
70
97
84
81
101
76
80
91
82
101
102
97
80
77
102
74
89
89
76
91
104
79
82
107
85
105
95
81
98
91
87
99
100
96
86
104
108
105
72
72
94
104
98
106
73
106
102
102
96
83
82
108
73
95
75
93
92
102
81
81
86
79
90
80
87
80
91
77
88
93
92
95
89
87
108
82
98
71
108
102
80
91
72
71
83
72
84
85
70
73
100
76
102
103
71
78
78
98
92
88
90
71
84
98
75
98
106
83
83
77
97
92
73
105
102
84
103
93
94
92
98
85
88
84
98
76
78
70
98
102
71
96
82
79
97
96
84
72
102
75
108
83
109
95
83
100
90
99
85
75
72
99
105
104
70
79
81
70
71
78
84
91
71
87
72
78
98
89
75
106
71
76
84
82
94
87
77
77
70
83
85
109
98
104
99
90
93
71
77
84
83
88
98
105
81
84
76
84
72
93
74
79
70
93
92
90
86
100
105
108
105
70
94
105
101
109
80
76
77
99
84
95
89
90
92
90
87
87
85
96
90
100
87
96
90
94
84
106
84
70
85
88
76
84
105
103
104
104
96
78
78
75
103
103
81
102
100
75
104
88
76
99
88
94
99
108
99
86
92
99
88
94
98
81
93
107
95
96
107
75
106
79
73
78
70
75
108
83
80
103
93
71
105
108
98
100
102
108
90
103
108
84
91
90
104
72
71
76
85
84
95
85
71
80
109
78
80
83
104
88
97
92
84
101
100
92
81
100
87
72
101
96
92
86
108
107
70
101
71
79
78
106
90
102
103
96
99
106
103
88
80
103
103
82
87
72
85
99
100
95
88
103
95
89
99
72
100
89
94
71
79
108
105
91
103
94
90
96
90
82
97
90
81
87
74
82
78
73
75
96
107
94
79
74
77
107
82
75
105
85
78
79
94
92
77
102
91
108
104
72
98
95
87
104
93
96
90
108
87
105
80
99
71
95
93
96
89
100
81
94
109
85
87
77
92
93
75
100
72
98
96
79
83
103
97
83
91
82
86
87
109
86
106
85
71
92
74
82
106
93
104
106
72
91
73
72
98
97
75
109
101
88
108
77
70
91
79
106
76
85
96
84
101
82
82
102
91
99
86
79
96
70
103
71
88
94
108
72
87
78
77
72
107
108
98
84
74
91
96
94
94
73
86
82
80
83
103
78
108
78
72
80
108
80
101
76
95
77
71
70
99
86
105
93
80
87
75
105
95
80
86
79
92
94
97
106
103
107
99
91
97
100
90
100
85
89
75
82
84
90
107
98
71
96
70
85
70
73
94
94
86
72
71
76
99
93
96
107
82
81
108
88
82
108
82
108
83
90
97
88
88
108
88
75
74
91
70
72
101
74
85
99
78
77
108
93
101
92
109
70
103
84
99
75
88
88
105
80
103
100
95
87
74
99
70
106
76
73
95
109
76
91
86
80
103
85
109
99
73
84
102
91
80
94
72
108
90
87
95
71
72
70
93
71
90
95
101
94
85
105
82
101
107
106
83
92
90
98
73
70
79
78
108
73
76
86
75
100
96
81
75
74
78
95
107
71
89
80
77
72
78
83
94
71
98
73
106
103
70
99
74
77
88
88
79
72
108
92
100
107
74
102
87
96
98
89
72
71
93
94
101
87
102
103
85
84
74
86
83
106
99
79
70
97
91
108
95
90
103
88
82
88
105
86
81
106
99
107
85
88
73
73
70
84
86
101
93
92
90
75
88
101
90
80
94
74
72
89
76
108
93
106
86
76
108
73
90
88
105
109
82
82
106
97
96
87
109
101
71
102
106
95
103
95
90
93
106
95
88
78
109
97
86
82
73
70
108
72
106
81
93
103
103
84
98
70
75
87
75
71
107
99
106
97
106
97
107
94
73
104
106
85
91
79
75
89
80
103
103
81
80
77
77
97
91
95
80
104
71
109
104
107
105
98
83
83
71
82
85
91
101
102
102
93
70
70
75
101
94
71
103
85
70
101
76
91
88
106
108
72
91
72
109
82
73
100
100
108
71
107
97
76
108
97
108
70
86
71
86
79
90
101
108
109
74
105
95
101
100
94
87
76
88
97
89
82
106
80
70
84
105
108
102
81
95
88
93
96
75
98
85
72
75
82
108
103
77
72
88
95
104
99
96
70
102
71
92
93
93
87
104
99
79
76
109
106
86
92
96
99
108
86
71
70
98
77
81
101
103
83
70
105
100
104
87
100
85
107
103
97
82
72
74
89
79
107
84
96
73
92
86
71
90
100
77
75
95
102
83
77
88
97
105
75
95
78
85
104
101
77
97
104
89
84
92
94
90
82
94
89
103
89
94
108
85
107
85
101
106
103
96
81
103
83
98
102
91
76
89
80
77
92
90
104
82
83
79
106
72
81
104
94
106
75
80
74
101
100
105
86
74
102
82
88
86
81
96
96
86
99
107
102
78
72
107
75
108
84
82
78
81
95
100
88
72
73
76
106
98
78
104
85
105
99
88
89
99
106
91
107
89
82
84
73
81
107
99
80
80
88
94
72
84
85
73
77
82
75
107
90
83
106
107
105
101
95
75
70
71
86
108
77
84
98
106
81
99
98
74
95
102
94
81
105
91
107
103
103
104
74
92
107
74
104
89
92
95
74
82
86
74
87
82
96
87
98
104
78
95
88
73
71
78
103
101
74
100
80
70
77
89
70
71
70
85
71
90
93
94
83
85
97
107
90
101
82
89
91
107
88
108
107
94
74
104
74
98
97
88
108
87
70
79
102
85
81
101
88
79
92
92
98
93
71
84
82
78
109
83
77
109
71
73
99
108
103
92
72
102
96
87
80
82
100
96
83
93
94
82
106
70
105
104
89
96
88
75
93
100
88
101
103
109
75
103
81
80
94
89
81
91
101
80
108
77
70
109
85
71
75
91
70
74
100
73
93
96
84
81
75
71
75
103
98
100
84
94
85
100
87
80
108
97
98
85
95
82
92
102
99
84
82
90
91
88
101
88
73
109
100
86
93
104
102
81
109
88
90
78
94
103
75
73
105
70
78
76
106
96
70
74
109
83
74
101
106
82
101
85
75
86
94
73
98
101
73
99
89
75
70
95
100
105
88
100
90
108
81
86
92
80
108
83
92
76
91
85
98
87
90
87
83
107
83
84
100
81
92
76
85
77
78
96
97
99
103
72
92
106
75
75
102
81
78
87
80
103
77
90
92
87
101
104
90
76
76
101
96
97
103
109
90
76
83
82
98
100
105
71
90
105
108
83
79
83
84
71
96
109
96
75
96
75
79
70
96
82
71
109
81
87
74
70
87
98
86
101
82
100
92
79
106
72
92
101
80
70
70
99
85
109
100
106
77
74
70
74
92
76
94
84
84
82
93
71
77
87
77
89
79
92
82
89
108
71
99
82
105
83
76
83
86
80
89
85
100
100
100
84
79
106
95
74
76
90
105
80
92
105
98
94
89
99
97
93
81
102
105
107
97
73
87
78
92
85
71
109
108
74
79
108
104
85
92
70
79
72
84
104
91
74
84
99
89
73
91
74
97
86
86
109
97
72
77
78
79
76
94
82
86
99
97
81
88
84
100
74
85
91
71
104
83
90
83
90
95
71
94
106
99
70
98
99
96
89
96
89
78
101
94
108
105
87
88
77
86
71
86
100
87
91
75
72
107
79
78
73
90
92
84
91
79
70
101
100
71
83
86
104
105
81
72
82
78
71
94
70
83
86
84
93
109
105
78
96
108
75
71
97
99
88
108
86
87
79
96
95
85
86
73
99
97
87
90
101
85
106
90
101
87
98
93
92
86
108
74
96
86
93
93
89
73
92
94
83
73
88
73
109
99
75
95
89
70
95
109
70
85
88
84
98
81
74
97
91
83
100
86
104
72
86
104
91
85
95
82
106
85
106
90
94
105
105
98
92
79
74
74
106
79
73
76
92
98
103
88
88
83
74
81
71
82
77
80
109
95
81
104
82
100
107
89
106
86
80
73
82
109
103
96
76
82
102
90
85
81
104
106
77
79
93
77
86
109
106
85
72
102
90
104
85
109
109
88
105
107
73
100
108
80
78
94
107
71
94
94
75
71
77
95
96
102
77
105
93
97
109
95
92
106
75
74
81
73
103
94
90
79
99
82
74
87
104
94
102
93
98
88
71
107
94
96
81
73
74
93
84
85
95
71
97
76
75
94
95
80
106
98
94
91
70
93
107
98
92
87
94
93
96
88
97
70
100
99
74
72
101
105
82
106
103
99
79
76
91
100
103
105
101
94
93
86
106
100
89
74
82
89
99
86
74
79
105
79
78
97
98
98
109
85
97
79
77
84
93
97
97
93
72
77
80
81
71
105
104
79
82
87
90
99
85
73
80
99
102
71
92
75
104
88
91
81
103
101
106
99
108
108
79
71
99
91
108
107
76
99
71
71
79
72
85
95
108
78
105
109
105
102
71
87
109
89
78
85
85
92
77
86
108
108
93
99
73
100
103
76
84
93
96
74
104
86
106
76
71
100
85
78
74
99
102
71
105
78
102
81
75
107
94
103
101
106
73
82
96
80
100
76
70
71
105
73
109
88
90
106
80
92
92
108
81
87
81
73
76
78
83
78
96
75
78
76
71
70
101
74
81
94
80
99
91
72
92
108
101
71
100
90
77
101
71
105
70
89
81
87
85
98
102
106
86
75
100
87
97
87
105
101
83
78
93
73
75
81
81
108
82
91
104
98
78
96
108
84
73
90
85
72
109
73
70
70
83
75
80
87
77
78
83
98
104
89
106
103
78
97
86
95
90
91
86
91
77
84
94
92
105
89
77
91
93
85
83
75
80
101
83
76
97
82
109
97
78
87
103
99
91
89
77
103
94
103
103
77
73
74
82
107
87
79
82
82
83
75
70
88
93
79
92
77
86
92
94
105
86
95
101
102
108
72
102
98
86
80
98
73
105
90
98
80
107
108
74
100
71
93
102
84
106
73
75
100
91
99
103
76
88
90
107
105
71
79
79
74
105
70
103
93
94
107
93
83
77
79
96
81
99
91
83
97
78
92
88
80
74
104
103
105
92
104
73
98
85
94
90
102
73
96
95
99
96
86
92
100
93
97
89
97
77
92
94
78
82
88
84
73
89
90
94
104
89
88
72
83
102
92
87
77
100
87
105
73
95
74
86
83
98
81
87
108
86
81
78
106
86
108
70
104
90
106
108
89
88
106
71
91
89
97
92
105
91
107
93
97
98
88
107
104
109
88
73
107
103
106
83
71
106
88
87
83
83
72
74
92
82
79
102
105
80
87
91
105
102
107
92
82
107
95
107
75
102
109
72
108
93
102
93
84
70
86
85
91
108
91
79
81
101
79
94
79
89
107
83
85
100
79
85
91
104
80
87
100
93
105
74
96
83
85
85
105
82
108
75
96
87
108
76
105
73
81
86
100
109
96
93
77
87
72
80
94
90
75
86
108
106
76
89
71
103
96
82
102
85
98
70
83
90
82
103
90
104
94
102
88
92
92
95
81
93
78
77
74
81
95
97
73
100
85
85
90
83
71
109
107
80
89
96
90
79
94
107
101
72
77
94
83
77
103
76
73
95
72
109
95
76
100
86
108
101
92
84
71
77
89
77
80
83
72
96
79
92
71
101
107
90
87
79
93
74
90
97
109
93
103
71
109
85
75
95
102
107
82
80
72
86
95
82
70
78
104
86
96
81
94
79
106
94
75
80
102
89
93
80
86
103
106
84
76
106
76
100
109
95
71
97
91
109
104
84
75
105
73
107
79
72
98
88
100
92
90
90
86
99
95
104
90
76
98
107
76
108
86
99
99
72
90
77
98
76
109
108
88
91
106
70
90
72
101
96
80
100
92
108
109
88
105
97
106
70
103
92
86
83
90
70
95
88
108
102
76
97
86
81
94
109
108
103
107
104
100
71
101
109
96
78
99
80
106
100
71
107
104
71
88
79
80
92
104
109
109
91
105
101
74
75
75
87
102
102
73
73
105
102
77
105
103
80
89
107
75
88
79
84
101
101
75
87
87
86
104
96
100
101
72
88
97
83
73
105
97
92
92
83
92
85
87
70
72
107
93
88
91
101
108
105
103
93
96
77
71
91
70
97
97
75
83
90
85
104
78
83
101
72
100
102
84
106
107
101
76
78
96
72
91
76
93
105
102
95
101
79
73
83
98
72
85
85
89
99
75
74
108
77
105
83
73
89
74
71
81
77
90
89
75
99
75
108
89
102
105
76
84
86
101
87
76
101
96
83
74
74
78
106
98
78
77
92
91
94
78
75
97
80
83
93
100
97
82
101
82
70
105
75
99
81
74
101
84
95
81
78
86
88
92
95
95
87
98
83
74
75
71
103
99
100
95
81
93
74
72
88
87
106
78
84
100
82
105
88
106
72
105
93
70
101
109
81
101
88
72
80
94
81
109
89
103
74
77
85
109
101
87
75
80
90
79
104
109
103
105
85
70
102
95
73
96
89
90
88
83
81
70
100
103
103
81
76
85
90
78
74
108
99
100
81
85
93
84
102
80
98
75
94
96
89
92
89
85
92
107
77
89
89
93
78
78
103
83
101
93
100
89
79
73
76
82
71
86
109
94
70
100
89
103
82
97
83
104
109
101
93
95
79
79
74
100
102
73
87
82
70
95
96
95
92
86
104
103
95
91
72
85
105
105
108
108
97
103
75
90
93
97
94
94
87
109
82
100
93
89
81
103
70
76
109
87
89
74
103
75
96
92
71
96
101
95
109
74
100
91
88
106
74
95
93
82
100
108
90
109
90
103
91
82
93
74
108
106
79
109
104
95
82
105
74
96
93
78
107
82
74
94
83
98
75
89
99
72
102
74
90
78
102
89
102
98
108
75
101
95
85
103
101
83
78
106
81
100
102
78
93
84
75
102
84
71
104
101
79
83
109
96
97
88
87
97
73
95
74
77
88
71
100
104
84
86
107
96
99
93
106
79
84
95
96
93
75
108
106
85
75
105
98
70
73
106
71
94
70
106
95
74
93
74
90
105
102
96
82
81
98
90
72
105
96
108
96
98
95
71
87
72
85
82
84
85
96
76
85
71
91
91
108
97
75
79
98
72
82
83
81
87
100
85
104
93
80
99
91
108
90
96
82
94
70
79
99
107
87
104
82
102
81
97
104
73
75
95
73
86
106
101
74
96
82
99
75
89
94
75
90
77
74
80
104
86
102
96
88
74
94
76
109
90
72
85
99
100
101
97
105
99
76
70
85
102
84
86
104
86
72
108
92
92
80
94
107
106
109
92
74
104
101
88
94
91
80
102
93
97
81
70
89
80
105
95
104
71
89
94
71
85
103
87
81
89
84
100
106
81
83
108
89
95
75
109
109
73
104
85
71
80
87
85
97
107
97
87
85
85
99
106
89
108
99
92
73
76
109
71
78
83
95
71
94
102
97
107
91
92
82
89
104
97
87
79
82
102
108
96
83
79
80
107
93
109
92
90
109
93
93
81
86
88
98
78
104
93
103
81
103
92
76
91
105
84
80
92
75
104
90
71
99
77
89
89
75
95
74
90
100
92
98
82
90
105
92
80
87
75
101
79
90
81
71
91
89
73
99
75
92
96
98
102
84
78
94
74
92
73
84
83
71
105
109
90
106
92
101
86
83
74
83
79
91
84
83
96
96
96
104
76
85
96
78
77
70
92
78
105
103
93
107
70
109
108
86
80
95
98
77
88
85
89
105
102
74
107
95
75
86
82
87
96
71
79
92
92
98
70
75
100
92
74
87
91
94
77
84
76
88
99
91
93
92
96
94
87
87
95
85
99
76
101
87
95
90
85
100
81
94
92
107
76
92
80
96
81
90
109
97
79
101
96
80
70
89
80
75
96
91
97
107
81
81
82
98
97
100
82
96
71
84
95
87
88
101
95
78
80
74
74
75
73
79
79
77
74
91
79
104
81
101
71
106
108
101
90
102
100
95
70
95
108
92
101
79
105
90
103
104
82
93
94
75
89
101
90
71
74
90
78
101
107
85
91
82
77
89
99
100
99
82
105
104
80
77
71
75
70
96
72
71
84
99
79
81
104
103
79
81
93
94
93
82
70
92
107
98
100
92
95
76
108
70
107
92
93
71
101
90
104
97
90
84
89
109
103
77
109
102
88
82
84
104
101
70
73
73
97
84
88
86
84
101
79
73
108
83
96
106
104
70
86
92
77
84
70
106
76
94
81
81
108
73
103
103
108
90
85
76
92
94
89
104
84
73
78
93
100
109
92
71
78
77
105
105
73
90
102
82
80
86
107
96
91
95
101
75
99
78
73
109
83
81
89
89
78
70
94
82
76
81
94
85
89
88
97
97
87
85
87
101
106
91
84
92
92
100
78
101
91
106
94
101
96
77
77
97
98
109
90
94
82
73
89
100
71
87
109
99
77
76
89
100
74
94
108
91
97
88
75
100
91
94
76
100
106
106
80
80
95
94
71
100
95
99
99
93
90
89
78
79
85
96
85
103
88
71
82
96
89
99
84
80
90
74
74
80
81
71
80
79
95
89
80
81
108
72
100
71
105
72
107
94
93
97
91
76
108
85
78
80
100
84
80
74
98
93
88
91
77
86
93
102
97
109
75
78
104
88
109
74
107
82
101
103
87
79
74
109
70
82
90
109
106
76
104
105
90
88
87
84
78
85
72
91
85
100
88
84
90
106
102
86
82
104
83
82
73
73
83
73
70
108
99
78
108
75
100
93
106
75
79
107
93
93
97
104
76
76
72
91
108
88
70
76
109
74
94
88
85
105
101
96
100
76
76
91
72
97
83
86
98
102
79
97
96
86
103
108
84
94
107
89
85
72
78
92
108
103
78
88
98
93
105
99
104
106
99
93
71
102
109
101
98
104
96
93
72
95
98
103
94
82
88
96
92
99
85
76
87
105
90
106
88
94
79
89
106
70
88
107
105
73
83
89
98
83
89
72
109
90
92
90
82
71
80
87
83
81
84
102
70
78
83
79
71
108
94
107
91
87
100
94
71
83
85
83
98
93
99
88
72
85
82
108
105
103
82
87
105
74
75
89
73
103
104
70
95
78
86
87
89
94
103
108
71
76
90
73
82
103
70
71
103
97
71
93
105
104
87
103
102
85
97
77
88
76
82
95
104
102
73
71
70
100
72
71
75
76
75
86
90
73
73
93
92
70
105
94
100
99
87
71
82
91
94
91
84
77
88
82
106
90
76
99
88
86
72
95
89
99
95
95
82
98
100
88
94
83
72
70
72
88
89
71
93
108
99
74
91
81
75
72
77
107
74
105
73
87
94
98
107
105
95
94
83
84
89
106
108
74
109
85
71
78
101
104
80
104
104
91
94
74
90
104
81
81
96
107
87
78
75
74
96
101
107
82
99
85
101
98
88
97
88
76
103
79
92
97
81
95
108
108
102
70
102
106
94
92
81
97
92
90
86
78
104
72
74
91
84
102
83
73
105
73
88
90
90
97
70
83
73
81
80
103
81
102
103
87
109
99
83
105
71
76
88
103
91
106
77
74
76
95
73
102
71
98
102
79
87
101
98
100
81
77
100
92
73
90
92
70
108
96
78
77
88
92
89
108
96
75
75
86
101
96
95
89
74
100
89
92
102
83
81
94
71
84
103
105
101
105
70
72
108
81
91
92
103
82
72
77
89
98
108
87
93
96
78
91
98
79
74
80
95
83
83
97
85
70
105
96
92
85
108
99
102
87
106
103
100
70
102
82
77
97
98
70
78
72
102
90
95
82
89
107
98
76
78
83
89
75
107
72
96
84
87
81
81
81
98
93
95
103
98
108
101
94
107
97
95
81
94
73
105
102
77
85
103
87
77
70
77
75
77
90
96
103
70
97
92
73
84
78
72
94
77
74
95
82
87
91
80
80
102
101
88
83
94
71
78
85
70
106
103
101
102
85
92
94
106
108
105
77
88
90
71
99
102
101
92
101
87
97
89
104
104
96
108
81
85
72
87
108
98
93
81
74
103
105
92
89
83
97
87
103
108
98
84
86
70
92
76
95
99
101
90
104
73
105
101
71
90
73
98
92
80
89
90
106
103
102
88
79
104
72
109
109
107
101
87
79
84
95
80
87
82
70
91
103
76
88
84
87
108
72
72
95
105
101
74
93
103
77
80
97
106
106
93
79
99
75
97
85
106
86
78
70
100
101
92
102
87
94
103
87
92
103
79
91
108
90
105
99
95
109
76
79
96
78
86
95
85
85
96
82
77
74
103
76
107
96
77
77
74
98
88
104
81
102
80
81
98
87
95
83
102
87
76
97
83
84
88
75
96
98
101
108
79
106
76
81
100
90
102
92
94
76
101
98
100
83
84
97
98
92
76
71
76
98
72
103
74
84
91
101
100
106
89
108
104
78
100
109
82
72
96
99
107
101
104
93
101
80
82
83
93
73
72
109
74
70
81
73
102
71
72
75
83
78
91
89
95
103
102
95
91
100
73
73
72
84
72
88
107
85
73
71
99
103
91
94
72
83
93
70
94
76
109
94
107
85
74
85
77
91
76
81
95
77
74
87
86
89
100
100
87
96
75
92
83
77
77
106
93
82
70
79
99
76
75
93
92
71
72
78
82
77
85
105
103
99
108
78
100
77
86
105
80
107
71
76
102
91
71
96
106
74
74
76
109
93
82
98
95
77
100
101
77
98
73
88
99
95
109
99
91
86
101
103
95
85
108
101
83
106
95
81
71
75
91
77
75
97
99
83
91
102
102
82
78
76
95
94
90
88
103
97
74
95
81
102
91
103
76
104
99
89
79
102
98
78
79
73
94
96
108
73
74
98
93
109
70
98
73
98
101
70
105
79
74
85
82
78
101
80
86
76
85
80
77
93
94
82
104
106
93
96
79
108
89
73
75
94
85
101
102
78
83
97
82
76
75
90
88
94
76
72
98
99
90
104
107
78
105
79
77
78
73
99
90
100
106
108
95
76
106
76
71
80
109
82
100
81
92
109
91
95
105
95
96
91
74
80
71
91
84
101
86
86
89
81
103
81
93
82
98
105
94
103
90
89
82
97
70
86
78
71
99
105
108
94
72
93
108
104
83
98
78
85
98
90
102
104
93
74
74
92
74
91
80
102
96
89
91
76
80
99
72
70
72
100
92
100
107
97
80
81
78
93
72
70
83
74
104
90
99
88
72
73
88
106
73
90
105
87
80
109
98
79
75
100
99
104
74
82
87
71
96
74
72
82
89
73
72
85
94
70
99
91
95
89
108
72
81
90
102
101
72
75
84
92
78
105
90
92
101
94
109
71
73
83
104
98
98
101
97
92
81
93
92
83
104
108
71
100
103
94
109
81
108
71
94
96
98
107
70
81
86
106
77
104
70
109
72
100
98
98
103
95
104
102
86
88
83
91
103
101
83
103
103
92
83
71
96
100
95
100
104
87
76
86
104
107
93
94
71
82
82
80
104
70
100
81
81
97
79
85
101
108
71
84
101
78
86
85
90
72
84
76
79
86
72
97
92
96
94
97
109
82
106
96
77
105
76
102
109
79
109
82
74
105
80
101
70
95
100
97
85
91
81
105
98
86
89
82
99
71
74
107
75
77
97
97
102
72
105
70
82
106
84
107
77
92
73
99
73
102
70
90
103
87
72
101
83
70
105
84
92
80
81
102
71
83
88
75
108
98
74
88
89
74
101
95
93
84
103
109
88
109
108
104
97
98
70
80
97
80
93
92
78
98
90
73
106
76
70
71
109
104
96
85
72
95
79
78
84
75
93
99
82
90
77
107
84
85
78
96
99
82
71
100
107
86
102
84
100
87
92
92
75
98
83
75
72
88
91
81
73
87
105
78
87
78
97
108
86
88
78
79
107
93
79
76
74
85
76
88
94
102
81
82
92
104
106
108
98
95
81
102
75
105
75
76
102
81
81
106
97
107
102
92
72
72
92
98
91
100
93
84
86
71
86
74
98
97
78
104
92
106
72
80
100
73
108
72
73
74
77
77
84
101
71
72
106
109
79
80
94
94
104
104
78
99
83
107
92
95
78
85
88
82
88
108
83
86
108
79
79
83
84
109
78
95
73
90
73
90
96
93
99
106
102
93
76
90
87
93
97
72
83
77
76
95
75
76
104
90
74
99
105
106
87
99
73
98
75
106
85
96
86
82
74
87
70
98
74
99
83
97
83
85
100
80
98
88
70
87
107
91
71
107
109
80
86
103
84
91
85
88
94
87
73
101
99
94
98
95
94
80
86
102
105
102
90
84
96
71
108
94
85
90
99
87
76
101
104
103
103
109
73
101
77
103
82
80
86
71
95
101
74
79
97
100
75
99
109
107
104
90
75
103
108
79
76
80
86
96
109
101
74
71
100
80
72
104
73
91
75
98
71
107
109
89
107
91
81
75
108
92
89
82
83
108
97
89
109
85
92
107
70
96
109
72
105
73
80
89
109
77
107
78
74
105
95
78
109
84
107
95
104
80
107
87
101
93
108
82
92
71
84
76
75
73
104
73
86
73
78
99
87
86
100
101
71
103
104
78
70
102
105
79
88
86
78
72
73
80
94
80
74
108
103
108
83
86
99
98
91
103
104
86
71
94
87
109
71
78
88
80
71
90
83
75
85
94
98
87
86
71
109
84
86
94
70
107
95
97
79
91
89
99
104
82
92
102
77
95
106
93
79
78
72
78
98
75
94
72
87
82
109
106
91
70
80
77
72
105
71
98
98
76
72
94
76
79
94
77
108
83
71
109
109
70
96
85
108
71
108
93
101
82
109
79
70
94
74
103
108
77
81
96
93
108
71
71
86
76
102
83
86
104
78
109
98
89
72
108
82
70
94
92
100
71
87
80
96
107
106
94
92
89
104
75
73
108
71
70
109
99
100
89
82
72
73
77
70
78
103
101
93
73
101
102
77
97
90
77
104
87
72
89
87
107
106
99
100
85
103
76
105
98
71
70
71
81
85
101
98
103
86
95
83
80
97
105
94
71
103
92
94
80
77
81
85
84
72
89
72
100
96
96
89
98
72
82
103
76
76
102
108
90
92
82
70
83
89
95
88
74
86
103
81
79
81
109
86
107
89
84
75
84
81
106
95
90
94
93
105
89
86
71
86
80
74
70
77
97
94
96
92
107
86
77
83
92
83
93
105
82
102
92
71
108
107
90
106
100
90
80
77
104
83
88
94
81
104
92
103
100
103
74
96
80
95
79
91
78
99
105
105
95
102
105
91
99
70
81
82
70
107
74
99
80
74
90
78
109
101
76
70
98
93
95
70
105
99
76
81
87
91
90
83
92
74
108
86
74
97
70
80
105
98
76
107
99
107
100
84
100
97
108
97
76
95
79
93
104
95
92
109
101
80
95
96
103
89
101
82
89
77
82
106
101
103
85
85
87
87
70
82
85
70
70
88
74
102
72
108
91
70
103
104
89
77
105
104
81
76
90
86
72
97
75
89
90
97
85
89
109
70
81
79
81
73
89
83
76
106
76
93
75
78
102
72
83
80
70
107
105
99
101
74
70
70
92
101
80
97
92
88
93
79
91
91
105
101
70
74
89
106
74
79
72
103
96
78
83
81
81
90
105
101
101
86
101
75
82
71
94
102
107
80
94
107
103
77
90
104
84
93
82
79
99
74
82
106
101
74
72
73
103
91
87
74
106
90
83
89
87
101
109
73
81
106
82
97
74
103
103
98
83
84
95
96
78
78
73
95
70
85
91
96
90
72
100
84
101
103
73
104
82
89
94
89
78
71
79
82
94
88
79
108
83
103
104
86
83
83
84
85
106
93
93
77
89
95
104
96
109
75
71
71
99
97
78
79
91
85
86
70
82
96
105
86
93
86
109
80
98
97
93
101
105
100
91
97
84
82
107
105
107
103
84
70
107
79
96
99
103
70
79
100
103
88
78
95
104
74
70
87
100
96
82
78
100
104
96
91
99
71
100
77
85
83
74
87
80
97
99
76
82
96
105
92
75
86
86
96
108
73
82
90
96
96
76
97
98
75
83
84
87
96
108
84
78
96
87
71
101
97
86
74
93
109
78
103
88
91
105
88
106
109
98
74
79
81
98
85
107
84
83
75
104
100
108
87
99
76
76
89
71
70
106
71
95
84
100
109
94
95
102
72
73
92
78
71
103
92
70
91
104
106
73
89
108
75
106
70
109
73
89
82
80
80
87
96
80
85
92
85
108
99
79
103
105
80
102
72
107
95
70
75
72
87
77
102
85
101
94
72
109
93
78
101
71
103
77
88
72
96
94
88
90
77
82
94
107
87
81
70
80
108
99
108
91
74
95
97
106
82
82
70
91
106
74
88
101
75
83
101
80
92
98
109
80
79
96
77
78
83
105
80
96
97
109
79
81
83
87
99
100
82
92
87
85
95
86
107
73
84
74
71
103
99
79
93
95
103
97
99
74
75
84
95
81
80
92
91
99
106
76
107
106
109
86
108
109
100
107
104
83
82
83
95
94
77
78
72
78
103
108
72
96
79
83
82
94
71
79
89
88
95
95
98
100
107
86
100
98
96
86
100
83
101
84
85
92
72
80
77
109
102
75
86
95
70
102
98
76
80
72
72
81
82
104
87
106
108
84
96
93
109
90
106
74
93
101
96
89
101
83
85
84
83
92
106
103
90
101
87
101
74
85
89
77
100
87
107
93
72
82
96
109
90
78
103
95
75
72
96
93
92
95
87
84
88
72
79
80
90
95
88
89
85
71
91
76
99
100
93
84
104
95
91
90
103
81
70
82
93
91
71
105
101
94
92
100
108
95
75
75
70
77
102
86
97
70
103
102
104
78
78
103
82
74
74
84
85
76
109
108
92
104
106
84
105
86
107
93
79
72
102
71
87
71
72
78
109
98
77
100
76
103
94
87
80
92
84
76
82
103
100
76
105
85
76
78
102
105
77
86
89
85
89
93
75
77
71
80
91
90
76
101
85
77
108
75
104
85
98
89
79
98
100
74
90
82
83
72
70
85
89
103
90
84
108
99
99
71
82
109
99
95
85
73
93
89
97
83
84
84
91
92
84
85
77
103
105
73
79
89
79
106
104
88
90
70
102
83
71
77
74
107
99
105
79
105
74
98
92
104
90
99
96
91
74
95
70
74
109
105
89
89
83
74
90
90
81
99
87
77
72
78
86
100
92
96
83
108
86
82
86
97
92
80
97
104
103
105
80
91
101
73
89
73
97
91
78
84
104
91
81
87
108
99
87
104
102
92
96
90
104
87
87
86
89
84
85
83
76
100
74
107
107
106
70
96
72
79
77
71
85
70
106
107
109
76
85
78
82
100
103
108
87
107
85
72
97
95
84
98
82
93
109
89
86
92
81
102
90
84
70
97
105
75
106
105
105
105
95
94
94
82
72
88
85
76
91
101
92
81
79
71
96
103
80
93
70
71
81
84
86
91
98
100
109
83
74
87
106
89
86
88
107
100
74
73
81
106
87
88
74
74
86
106
109
81
76
95
91
106
103
81
92
91
96
72
79
86
81
103
87
78
89
109
106
83
78
100
107
87
98
102
107
97
81
89
83
98
89
104
101
103
107
101
108
102
73
75
81
92
97
73
71
102
89
108
73
103
91
75
99
105
83
89
79
79
78
102
81
107
102
95
84
76
84
80
102
98
109
71
89
101
71
99
76
74
101
77
90
103
90
85
73
98
107
88
86
92
88
104
95
76
76
101
72
98
90
83
82
96
107
92
105
88
85
103
77
106
94
104
108
76
82
99
109
80
97
99
80
72
77
96
85
101
106
89
90
96
78
109
88
80
91
88
88
78
83
108
74
78
92
70
79
103
100
99
104
83
94
75
109
99
85
101
83
101
81
83
96
72
80
86
88
106
79
109
70
79
72
91
99
77
94
95
82
86
79
71
80
101
98
87
78
84
81
103
105
102
80
75
75
97
103
103
91
102
100
106
83
83
101
82
96
80
77
105
103
90
92
87
70
85
76
80
97
93
73
94
95
102
72
90
100
90
84
95
79
75
109
88
70
90
82
76
105
95
72
86
101
98
91
74
91
74
92
108
96
100
108
83
101
102
105
71
73
84
78
103
94
90
96
70
81
91
70
86
94
82
104
101
76
72
107
96
93
93
75
77
89
106
83
109
83
78
106
106
92
79
94
77
78
75
101
108
84
96
97
90
80
97
100
95
100
90
93
89
78
94
81
83
86
86
102
85
89
77
99
84
75
74
100
107
81
70
85
82
85
71
85
103
101
92
77
98
77
81
104
86
84
101
109
108
85
106
107
73
72
93
102
108
80
79
71
97
77
99
96
73
85
73
87
85
86
74
98
96
104
85
101
93
73
73
96
106
80
100
85
83
86
92
96
82
90
108
72
101
76
105
109
80
100
109
74
77
92
76
76
97
83
94
99
73
84
108
74
92
86
101
98
107
85
75
108
70
105
98
70
73
109
81
92
104
82
109
91
86
85
82
107
108
87
75
99
79
92
108
90
107
103
109
83
87
75
82
95
105
100
81
98
108
87
84
103
71
88
87
109
96
75
100
78
105
93
101
93
73
83
98
88
102
91
76
95
81
98
105
92
99
101
81
107
87
84
103
84
71
92
77
86
108
77
73
102
80
91
100
88
78
104
102
77
101
98
82
71
97
80
71
97
90
75
81
98
81
107
77
99
104
88
101
86
97
98
107
98
74
99
96
85
103
83
103
105
104
92
86
90
77
103
93
70
88
70
75
86
98
108
101
93
104
90
103
78
79
108
72
75
94
107
81
99
91
100
79
99
88
73
81
89
87
70
84
101
84
86
77
96
74
71
86
105
89
84
101
94
71
90
89
72
108
101
87
91
82
75
92
84
100
97
91
75
102
77
73
75
94
108
72
80
98
100
73
96
98
93
93
109
95
76
78
106
101
72
81
100
84
96
71
107
85
76
108
105
75
108
95
90
79
94
84
85
89
84
102
90
84
92
73
92
106
98
87
81
103
107
104
79
98
91
80
73
89
98
92
83
109
83
101
82
102
93
80
88
80
77
85
70
102
107
87
82
101
84
91
84
93
96
100
108
83
93
86
86
98
108
106
72
100
106
82
75
108
82
102
104
101
80
101
109
80
105
96
72
90
82
107
108
92
94
101
90
96
92
75
105
104
104
88
104
96
105
103
92
71
75
100
70
82
86
88
94
107
78
91
78
96
108
79
88
94
101
83
97
95
106
85
74
106
72
76
93
82
104
76
85
81
105
107
97
103
93
100
98
109
106
106
75
103
106
79
73
90
77
93
82
98
109
93
107
72
106
87
101
97
95
105
87
74
93
91
82
106
102
106
89
105
93
91
103
104
76
91
86
73
94
84
93
81
86
75
89
74
96
72
104
94
87
94
90
96
70
107
96
77
82
74
90
108
71
95
107
74
83
99
80
73
104
73
81
90
102
71
71
72
104
89
103
79
102
106
101
85
91
77
101
104
96
92
93
96
88
86
87
94
101
94
70
93
75
81
103
103
92
89
83
91
100
80
97
86
93
78
81
72
94
71
94
97
79
87
75
100
73
80
74
74
108
77
97
82
72
87
79
79
71
96
77
75
99
94
103
83
85
83
109
90
94
82
109
74
73
108
84
80
72
84
85
80
70
88
89
106
85
82
72
91
73
101
102
86
101
91
97
76
76
86
90
106
91
86
82
99
109
107
103
77
94
100
72
80
109
95
101
92
99
105
82
106
81
72
93
94
90
103
94
99
84
74
71
88
85
91
92
82
83
108
109
82
108
102
90
72
95
81
70
104
91
101
78
100
95
73
76
74
106
90
79
104
108
102
77
109
108
96
84
73
107
95
102
95
72
91
75
82
94
96
99
79
91
86
108
90
91
79
72
83
77
91
75
97
99
105
84
79
104
103
106
71
109
75
81
101
92
83
92
101
97
82
93
80
85
76
83
82
109
92
84
95
75
83
75
72
91
100
83
105
97
86
101
93
97
82
70
75
86
93
109
106
72
96
107
107
96
78
108
79
101
102
93
89
100
74
103
108
75
95
99
96
87
78
93
89
103
82
78
89
104
75
85
80
106
98
70
81
75
70
78
78
91
102
70
94
80
88
94
94
83
74
99
102
90
95
75
93
95
108
89
104
105
83
77
95
89
104
94
88
88
90
90
73
103
108
85
104
79
85
80
85
107
108
108
106
106
72
79
105
97
80
86
95
89
102
84
72
92
89
90
75
70
83
96
79
74
96
74
70
106
72
102
73
99
103
93
100
88
99
96
108
86
93
102
70
80
100
99
73
107
94
75
71
109
73
79
104
90
105
78
96
87
98
96
82
99
105
95
93
98
94
79
78
76
93
72
93
102
101
90
92
87
103
88
78
93
91
103
101
72
88
81
87
96
100
109
81
91
75
90
100
90
98
84
79
84
70
93
93
83
80
88
97
70
100
98
95
102
91
97
101
101
78
82
98
99
99
70
85
75
101
85
105
102
95
78
80
71
97
100
93
71
78
77
71
89
109
80
107
80
79
85
80
87
104
74
97
98
82
98
71
100
102
96
93
80
85
101
88
75
94
78
94
82
88
98
78
96
82
99
89
107
88
82
103
88
73
88
85
91
80
82
109
100
96
108
103
103
91
98
71
82
108
99
87
92
107
95
70
92
106
98
81
71
94
89
105
95
96
93
77
80
92
94
73
76
73
105
103
74
82
77
102
83
101
98
88
109
82
75
80
107
94
94
83
109
89
82
86
99
108
96
105
80
79
85
91
77
82
71
78
83
98
109
83
93
87
84
73
70
76
79
91
103
102
79
72
107
72
100
103
78
70
90
81
83
81
95
105
85
75
76
74
97
75
99
73
82
107
80
107
109
80
106
79
78
82
92
95
106
77
95
107
71
70
107
86
97
98
102
93
102
92
83
102
100
109
70
77
89
81
71
77
83
87
93
77
74
105
86
72
107
70
84
90
70
100
82
88
90
81
95
87
95
84
90
79
108
104
103
105
98
97
72
95
73
73
104
76
106
101
100
76
84
76
99
100
91
104
88
101
70
104
101
93
87
100
89
103
89
83
109
84
109
74
108
106
77
70
98
84
85
92
103
74
79
94
107
74
94
89
108
79
101
93
109
81
88
93
98
101
107
71
97
79
98
86
75
85
89
86
76
77
101
79
94
74
90
70
85
107
71
88
71
101
103
97
106
106
97
85
82
74
82
92
99
105
105
91
100
104
100
88
77
80
89
86
106
77
95
90
96
72
86
109
72
95
92
92
90
81
98
108
91
100
86
90
90
82
82
90
88
84
77
109
78
77
89
73
91
90
93
92
109
95
91
88
96
70
92
86
77
77
107
92
77
93
96
72
87
98
102
74
102
80
94
109
102
82
93
71
88
97
84
106
84
91
95
81
94
89
72
86
93
70
84
83
88
85
78
104
97
82
91
85
86
100
94
88
102
89
101
105
106
90
100
76
108
89
104
103
83
105
102
101
79
100
93
82
75
90
98
88
105
89
90
73
82
96
93
86
77
97
89
79
96
102
85
84
101
107
79
92
71
84
80
91
77
80
70
81
102
94
98
73
94
79
92
104
104
93
91
95
76
74
73
73
99
76
95
97
97
72
101
86
81
100
108
72
79
81
104
88
90
73
80
107
81
85
103
88
104
74
104
98
107
109
78
95
98
85
106
106
109
88
80
70
90
72
92
76
85
103
97
103
71
73
82
102
74
90
77
105
83
72
76
104
97
81
94
97
94
88
78
88
76
100
82
75
81
89
95
79
94
75
98
109
92
72
74
89
96
78
92
93
89
86
71
97
71
87
90
102
86
109
99
75
99
91
74
87
79
78
84
104
82
92
76
76
98
94
79
93
107
74
78
82
97
84
90
77
84
101
99
95
91
84
73
82
109
77
87
96
91
79
77
88
90
99
109
74
80
105
104
75
77
77
74
98
100
90
107
91
105
85
95
84
109
94
73
87
72
74
99
72
86
109
97
87
102
94
71
79
71
99
71
88
75
71
80
83
105
89
107
109
101
71
80
101
75
82
73
104
92
75
93
109
96
103
72
85
93
87
72
109
102
99
107
95
88
96
104
102
73
72
91
105
97
73
85
73
86
72
99
70
106
95
93
71
88
93
106
105
88
85
98
107
94
82
76
103
82
105
106
98
83
95
81
72
85
109
93
106
93
105
77
89
98
95
83
88
71
79
95
101
70
73
108
80
87
87
90
79
105
105
78
89
104
87
95
105
96
82
106
94
105
108
81
89
107
90
87
86
92
78
71
103
72
82
77
85
104
98
77
104
78
81
76
89
72
71
108
78
99
105
107
78
73
97
109
70
78
96
73
99
80
97
106
72
77
104
95
106
90
107
101
98
89
96
108
83
82
71
79
78
101
105
96
90
86
89
75
71
90
73
89
77
106
89
88
104
94
76
73
95
76
75
83
109
89
70
78
95
78
95
98
104
71
90
97
82
80
83
82
109
96
94
103
109
99
76
98
94
75
85
75
83
71
73
101
81
70
75
98
85
109
72
108
77
96
84
78
85
102
71
106
104
72
86
108
98
107
108
78
84
83
91
101
104
106
101
108
109
82
96
72
77
103
98
109
109
81
80
95
84
72
109
74
80
89
106
94
78
81
81
109
80
103
70
103
92
70
80
105
98
98
108
89
78
76
75
109
87
73
77
108
103
88
102
76
93
99
72
70
95
93
97
72
91
86
79
81
96
99
97
90
96
105
103
91
97
106
85
92
109
73
76
77
70
75
105
103
70
96
74
77
86
72
94
101
77
73
85
92
84
80
104
105
79
101
74
72
78
84
79
98
101
105
92
74
97
76
79
84
92
77
104
97
83
82
80
94
94
95
104
78
95
101
78
100
103
94
84
70
101
72
90
103
96
72
77
92
80
89
79
105
79
93
72
76
78
98
101
82
85
89
97
88
91
75
74
85
95
101
93
71
94
94
84
91
86
87
103
97
98
82
97
71
71
101
100
84
102
81
87
88
76
86
95
91
78
98
92
91
73
106
94
74
104
104
95
94
95
85
91
75
104
88
93
78
76
72
107
75
93
95
70
74
81
79
99
93
97
89
109
78
75
76
78
78
93
91
83
97
83
99
96
96
74
99
84
102
94
108
78
104
81
99
72
103
109
100
91
72
100
105
100
102
78
92
93
109
75
106
95
82
105
104
86
98
72
98
85
88
100
97
92
83
91
93
71
95
80
100
97
74
95
74
81
106
89
97
108
86
82
90
107
98
74
93
102
103
105
94
88
82
79
105
85
92
99
70
106
98
73
96
108
101
81
107
76
92
102
92
97
97
84
102
103
106
94
98
103
105
87
78
94
102
95
81
74
107
80
94
74
88
106
87
85
104
75
84
102
83
99
93
95
78
80
100
76
104
109
78
81
79
88
99
102
98
92
83
105
80
76
84
93
89
73
82
75
75
94
102
102
96
105
91
99
77
101
76
72
94
102
81
100
89
109
84
80
88
77
71
85
99
85
89
70
101
71
89
102
77
80
81
109
97
104
102
79
102
76
103
94
91
99
109
105
94
102
90
77
71
76
85
83
92
92
108
106
92
100
99
79
88
105
84
73
71
72
71
82
89
77
101
99
79
74
87
87
72
91
85
92
103
71
75
101
99
81
102
75
95
103
80
108
107
83
88
85
82
105
86
92
87
104
77
97
73
84
74
87
78
75
100
109
87
103
92
106
80
91
103
96
108
74
105
88
70
84
109
78
91
74
82
70
102
100
72
103
75
73
76
72
88
79
103
88
73
108
70
74
100
100
70
73
92
75
86
72
89
93
90
78
80
100
76
95
79
107
101
102
92
97
93
106
103
87
96
102
108
85
82
70
101
90
99
87
104
99
86
70
77
94
71
108
83
95
99
96
99
107
101
93
84
83
94
93
81
99
100
78
96
92
87
85
101
102
80
73
78
82
98
89
88
79
77
104
90
99
88
95
96
109
88
76
107
105
71
106
95
83
78
105
93
71
77
95
106
72
90
87
96
96
97
81
83
72
100
75
103
96
83
70
104
81
85
107
73
73
87
72
81
71
100
94
99
87
94
101
86
88
92
106
77
108
108
103
87
96
75
107
96
85
75
109
105
103
76
83
71
84
79
87
80
78
94
77
75
84
80
94
79
70
99
105
92
88
83
82
90
89
107
83
95
92
105
82
93
86
94
83
83
73
102
96
74
97
101
102
99
70
107
90
103
73
74
108
95
98
85
98
77
73
99
72
91
75
84
103
83
79
99
92
94
98
93
82
105
104
97
90
76
76
80
90
85
90
79
107
93
107
106
88
89
104
100
76
108
83
109
99
83
82
74
92
81
109
91
93
99
83
89
72
103
80
79
109
105
97
90
71
78
75
84
75
109
96
85
78
90
91
107
103
108
71
108
85
98
83
81
90
74
73
94
104
74
88
79
83
99
94
101
71
82
73
80
107
80
88
71
95
85
93
95
90
104
102
89
71
98
100
103
96
85
76
103
75
87
85
104
108
83
80
77
108
81
95
73
81
92
103
74
86
93
103
72
92
86
94
103
72
106
88
100
95
83
82
85
96
92
78
100
105
89
97
108
77
91
91
100
108
80
78
93
75
74
83
87
85
94
81
81
90
81
87
88
80
78
84
87
79
91
85
80
105
109
95
106
106
88
102
108
108
84
101
73
86
76
103
100
78
89
101
85
109
78
104
100
98
85
82
86
81
75
72
79
93
103
83
95
107
72
80
71
90
96
100
85
96
107
107
78
78
109
83
84
95
99
93
80
85
88
100
82
93
107
88
103
84
79
85
97
73
76
80
85
108
76
98
90
80
80
105
78
70
99
83
109
90
87
92
76
89
71
97
82
107
85
109
80
102
101
109
99
83
98
104
96
77
80
105
87
86
105
79
99
100
91
76
105
77
82
101
94
71
82
90
78
108
88
95
91
107
82
98
83
73
107
94
101
98
84
71
85
75
103
95
70
98
86
80
71
73
100
90
89
70
81
79
80
70
100
102
72
100
84
85
98
100
104
75
78
101
104
101
91
94
91
71
102
72
106
93
72
85
109
106
75
87
76
72
109
100
105
81
102
104
93
71
79
75
79
79
75
101
92
75
83
87
83
79
92
92
105
92
75
105
85
92
85
104
84
77
88
107
95
90
70
95
107
78
91
86
90
82
84
74
72
80
74
87
89
81
88
88
89
93
73
77
76
97
70
100
103
94
79
101
102
79
87
74
96
90
109
78
96
107
80
85
85
70
74
101
76
92
97
84
76
95
74
98
106
89
102
80
102
98
106
97
70
105
82
72
90
101
94
90
80
92
95
101
105
99
83
73
107
79
103
86
104
108
101
79
87
92
71
70
106
74
74
79
80
103
78
105
99
101
109
90
76
107
74
82
94
80
84
92
104
107
91
96
103
98
75
92
92
89
87
93
73
102
87
104
74
99
108
101
82
107
75
79
75
81
105
93
74
93
102
109
82
80
85
89
88
106
91
74
87
82
86
77
85
78
72
75
77
107
84
101
79
103
72
96
109
109
83
101
87
98
97
108
73
102
108
98
99
100
102
72
89
85
109
103
93
105
94
96
90
104
101
97
90
73
91
77
82
97
73
82
99
86
108
73
77
84
89
82
104
80
83
79
107
91
99
89
88
105
80
88
103
106
71
87
91
89
76
70
74
99
74
93
104
106
95
101
102
91
84
89
87
85
107
77
92
76
105
70
88
76
71
98
102
81
92
89
106
70
101
76
77
77
87
85
85
103
75
87
100
108
76
96
88
109
86
92
83
71
79
75
84
83
74
86
94
93
89
94
71
81
75
86
75
93
95
106
106
107
88
80
79
109
89
93
75
86
99
107
98
94
76
74
100
78
106
101
94
101
89
70
74
74
89
109
108
107
83
101
71
86
109
95
96
78
101
106
104
73
98
83
80
79
105
106
80
109
103
70
96
90
98
82
75
89
85
103
97
105
91
84
92
90
75
108
85
81
85
79
71
77
101
75
92
107
93
92
88
103
80
97
75
84
108
73
74
70
87
78
96
86
78
82
81
85
90
95
79
84
99
83
97
92
97
91
88
82
89
79
84
109
109
87
87
83
104
84
80
96
88
82
74
97
109
76
86
88
104
73
103
73
71
78
84
76
73
92
75
92
93
91
84
103
88
86
84
103
86
89
107
81
80
97
104
107
103
92
75
91
96
89
99
102
81
72
81
87
75
100
85
88
80
72
72
77
86
97
82
87
77
82
100
103
102
109
96
76
85
73
104
78
72
95
85
108
104
90
97
75
79
86
78
103
74
95
88
87
74
85
97
108
86
71
92
91
107
78
84
92
102
75
77
73
97
92
99
98
92
107
75
88
86
95
102
97
109
87
77
93
106
100
89
102
72
94
74
93
70
90
83
74
75
91
91
107
90
79
87
82
78
99
102
96
96
73
102
94
102
104
101
102
86
109
90
93
76
73
93
84
72
83
108
95
99
104
104
78
108
72
96
74
70
91
76
90
84
83
76
94
88
91
82
99
95
96
76
97
73
72
87
105
80
89
81
100
87
106
70
80
102
71
70
83
99
73
92
101
98
101
81
105
80
71
82
108
93
94
96
97
80
73
103
85
87
82
81
103
71
90
75
89
97
77
72
85
102
104
77
106
84
80
78
94
73
92
87
73
95
94
92
71
105
102
93
102
93
80
108
72
98
103
105
107
108
74
80
80
70
85
89
89
96
83
81
86
89
75
103
81
94
80
82
73
99
86
88
76
97
82
74
73
81
73
95
85
104
76
77
107
76
106
79
81
78
86
84
97
88
83
108
70
89
93
80
80
86
90
90
97
108
81
107
72
83
97
100
94
77
77
87
104
87
94
95
92
71
98
109
71
103
100
85
94
81
92
80
100
92
73
98
75
93
91
79
94
89
94
90
95
90
76
86
101
88
74
97
104
90
102
86
88
102
87
98
98
93
101
80
108
106
107
97
92
85
83
102
108
91
104
72
80
88
81
99
107
103
101
93
94
73
90
101
107
84
75
106
82
78
97
74
82
91
96
93
74
75
86
72
79
96
87
78
89
78
109
84
82
75
87
76
86
73
103
108
89
106
80
79
70
108
79
77
108
85
89
95
86
104
94
102
98
96
108
92
89
85
79
74
105
77
88
108
80
76
108
74
74
87
94
88
101
70
71
73
107
96
77
87
87
107
74
102
99
108
70
74
98
76
96
78
90
76
73
102
108
74
81
87
94
108
94
85
104
76
106
70
95
77
92
102
71
85
106
97
84
84
86
96
82
100
78
78
83
97
105
106
89
98
94
107
109
81
79
103
87
104
103
76
79
100
71
74
76
86
103
104
99
87
75
78
90
76
91
83
109
75
88
97
88
101
100
102
78
93
74
100
106
87
102
83
93
84
101
76
79
101
88
97
105
86
93
76
82
70
71
94
88
83
103
105
105
75
90
72
75
72
109
109
73
108
95
91
79
94
86
109
80
107
101
78
77
72
84
75
105
87
80
94
99
105
77
100
108
75
97
73
82
107
74
82
84
109
83
76
102
73
99
99
103
79
71
94
89
102
73
89
81
73
96
106
80
108
74
105
105
93
96
97
108
102
105
108
98
74
81
70
98
94
107
80
91
98
93
88
107
80
99
71
96
92
70
108
77
76
71
71
71
75
71
88
89
104
88
89
108
76
81
73
91
92
70
83
86
108
103
86
76
77
90
78
103
87
107
107
99
107
107
88
96
106
94
79
96
74
73
99
82
91
92
102
88
108
85
100
102
100
101
79
92
101
95
92
78
99
102
79
82
70
102
99
82
84
78
84
82
100
92
72
100
86
97
107
90
102
71
106
84
90
96
75
107
98
73
107
77
72
71
80
106
104
104
88
94
105
94
105
72
109
79
74
73
86
89
97
90
81
92
103
88
103
87
82
73
73
80
98
75
93
71
86
90
103
98
87
75
81
102
76
88
109
84
104
83
98
98
97
77
70
76
74
105
75
99
100
109
101
85
80
97
82
92
97
92
83
75
96
83
83
87
79
82
93
99
81
80
91
94
74
94
100
80
91
73
93
83
97
88
100
95
103
104
88
97
81
70
93
108
91
108
103
96
104
104
77
106
79
105
104
92
107
92
92
87
74
86
94
103
81
74
94
102
94
86
79
99
102
105
101
84
104
103
86
97
89
104
76
91
105
102
74
77
70
94
109
82
80
81
101
103
92
107
84
82
85
75
70
76
104
109
74
99
95
76
80
75
97
100
91
85
79
71
105
72
90
101
80
104
99
82
83
84
107
91
70
108
108
105
78
83
79
97
92
97
96
99
92
92
72
82
73
89
73
75
76
85
79
97
84
89
92
96
72
109
84
105
91
75
99
78
78
88
76
103
109
71
83
75
91
79
85
83
95
109
87
107
107
85
76
106
90
85
91
101
107
98
72
87
91
80
82
107
71
92
93
77
98
100
73
94
76
105
74
102
76
92
97
79
104
95
107
80
106
85
81
103
84
92
72
99
104
98
105
104
73
102
108
92
78
80
72
106
72
76
102
109
74
91
95
87
96
91
99
74
83
80
108
79
92
90
82
94
79
81
105
85
83
70
103
84
79
108
98
88
95
87
81
70
78
76
106
83
78
81
76
90
94
78
78
77
91
84
72
95
75
109
96
82
94
101
72
92
93
87
85
72
88
107
76
82
74
86
80
83
80
98
79
86
106
80
93
105
81
83
73
72
74
79
87
70
105
106
78
102
105
97
83
98
75
78
101
81
70
97
90
78
70
93
106
71
96
85
91
91
108
102
100
71
92
78
103
83
85
101
104
80
91
99
107
101
89
99
85
75
89
94
81
93
105
107
78
76
87
101
87
82
103
93
107
85
98
106
86
87
81
103
104
107
74
76
100
74
82
71
76
71
108
100
83
96
97
106
91
103
80
97
73
87
96
73
109
106
108
108
78
74
102
102
93
87
79
84
104
73
93
100
107
71
86
75
82
79
109
76
90
78
75
87
72
98
87
97
90
102
105
83
101
102
83
85
71
100
97
108
94
90
83
97
88
97
80
76
93
81
78
89
89
106
71
74
94
83
77
93
74
105
106
103
109
98
81
97
102
106
81
82
70
101
91
78
85
102
90
78
75
96
107
95
106
107
109
87
98
82
82
77
101
82
102
97
93
85
88
100
98
72
103
97
104
89
102
84
80
102
107
105
70
98
93
104
91
73
84
88
100
102
93
82
91
82
78
96
84
80
87
93
75
79
90
70
92
72
108
106
83
80
76
70
85
88
107
84
78
75
85
100
76
96
103
107
100
73
105
100
108
91
103
85
81
95
82
83
74
104
100
88
100
94
92
99
88
90
102
105
106
107
87
76
107
96
79
105
88
79
104
77
92
86
95
98
92
80
88
95
90
90
87
78
93
94
100
83
87
72
78
81
78
79
75
102
79
70
94
106
96
100
83
84
100
88
96
70
101
73
92
98
77
78
100
85
93
89
107
83
82
81
106
91
84
96
104
84
105
82
76
72
106
71
73
72
76
91
105
81
98
108
85
109
105
83
92
85
84
103
106
93
97
86
82
104
107
70
95
70
105
91
80
107
72
105
91
106
84
77
107
97
85
103
108
71
71
83
78
92
98
72
96
104
76
103
80
87
91
104
72
98
88
91
107
97
88
75
72
73
84
87
85
88
76
91
96
89
96
92
107
76
103
99
70
92
75
92
81
88
92
104
74
106
76
104
108
76
84
74
105
109
85
89
104
86
81
72
82
97
106
71
98
76
99
97
100
74
78
101
96
91
102
92
86
78
71
91
91
92
106
89
101
70
101
82
108
97
74
78
82
81
71
108
76
108
70
99
97
105
78
90
99
105
97
101
91
84
87
107
90
103
76
71
109
101
93
76
104
107
97
100
71
73
77
98
73
109
72
103
86
98
73
98
82
97
102
99
82
78
78
74
87
79
104
75
80
89
78
109
85
100
109
91
106
95
94
91
80
70
106
93
74
107
104
94
94
100
91
70
75
84
83
94
82
91
96
70
96
74
86
102
74
74
93
75
90
101
81
85
74
104
74
103
70
102
76
78
103
88
105
109
108
108
109
104
100
100
83
88
98
73
87
103
104
79
83
84
88
90
94
81
78
73
105
75
105
91
76
90
100
79
73
90
72
104
70
96
101
97
105
105
88
109
87
96
87
82
94
102
91
71
108
95
109
99
104
82
84
72
103
73
70
73
105
83
77
71
93
94
100
90
98
89
82
102
80
80
70
108
86
73
92
75
77
79
70
94
101
100
103
79
103
85
100
84
75
89
84
82
74
106
89
72
102
103
103
93
89
105
85
108
83
108
82
78
72
72
74
88
106
81
81
79
91
108
87
106
77
100
108
80
109
83
94
97
109
76
104
81
98
105
109
90
109
72
70
88
77
84
73
91
109
89
99
89
90
95
94
91
89
99
86
81
102
82
72
87
71
104
77
98
90
89
70
94
85
93
96
74
85
97
106
103
96
99
92
84
70
86
74
77
77
103
105
77
93
79
98
90
101
107
101
80
91
88
103
97
73
83
95
83
102
80
85
82
82
96
92
72
70
105
83
82
99
73
70
109
83
90
98
81
77
109
96
76
100
80
97
90
90
98
108
92
89
104
108
70
91
97
93
78
82
71
88
81
98
95
93
104
78
91
72
84
104
101
95
85
93
71
75
73
80
73
78
107
102
91
84
90
82
75
93
84
106
81
73
75
74
105
109
86
95
97
85
83
95
76
90
84
86
78
70
79
84
73
102
90
86
95
72
95
97
97
84
101
79
95
80
95
83
105
70
72
79
70
81
87
104
90
80
88
96
93
74
83
108
106
91
81
79
86
94
100
87
90
83
78
103
89
82
101
109
102
97
101
84
72
107
95
109
95
82
105
81
100
70
77
106
108
94
70
99
86
78
97
92
77
90
97
107
95
90
85
80
95
70
94
96
72
84
99
100
75
79
79
82
83
99
86
100
95
87
75
88
87
97
70
89
91
80
109
99
89
94
96
84
93
100
97
97
78
83
76
95
86
88
99
100
105
72
101
76
74
77
96
88
75
87
100
84
92
102
106
72
70
94
101
81
96
92
104
97
89
89
73
109
71
101
84
101
104
93
98
97
71
88
99
73
81
79
90
70
104
107
97
104
79
99
93
104
95
78
106
79
82
109
74
101
87
109
74
86
70
108
94
83
108
97
102
109
80
73
81
103
78
104
81
109
108
77
86
103
100
81
88
82
98
72
79
89
86
105
86
96
100
107
72
90
98
96
80
83
73
71
71
88
80
92
90
93
93
83
98
95
109
77
97
76
95
90
81
88
108
96
71
106
89
98
104
101
72
76
106
83
108
94
94
71
100
88
93
74
89
102
81
97
99
91
77
108
81
90
95
98
96
106
85
107
95
90
78
86
80
94
99
109
88
89
78
94
83
100
73
107
82
101
73
75
94
107
93
74
98
105
106
103
108
81
73
109
92
83
75
93
88
86
75
73
79
94
109
91
85
79
102
71
78
105
76
71
102
108
95
94
104
94
89
103
70
99
106
79
97
92
94
72
105
83
91
87
103
85
101
104
97
73
76
80
86
81
106
84
99
95
85
72
93
82
92
82
79
96
96
105
86
109
104
104
83
93
81
87
89
79
109
84
97
76
100
77
98
78
105
105
92
99
79
88
71
108
75
81
71
89
91
99
107
96
79
93
102
78
95
81
101
84
70
86
107
109
86
94
106
104
107
104
82
73
84
71
71
101
95
90
78
70
84
84
87
83
94
103
90
107
85
85
107
99
103
72
104
95
72
99
85
78
71
80
101
81
100
83
84
100
95
70
91
78
82
95
84
70
98
95
86
94
82
100
91
109
72
73
72
96
76
76
92
88
94
105
101
106
87
93
72
74
107
70
103
89
86
105
104
106
93
99
107
71
86
92
92
97
74
105
98
88
105
97
87
88
103
107
90
100
78
70
97
79
92
80
82
81
103
91
108
78
94
93
97
94
97
71
95
104
108
72
88
72
79
82
70
99
90
94
107
72
88
108
72
90
97
70
108
91
101
85
104
83
85
91
104
82
76
107
108
82
102
94
80
88
103
104
105
92
95
90
97
78
109
105
109
92
106
86
85
82
96
95
107
97
99
103
104
99
102
106
99
86
72
91
107
71
80
73
104
89
79
87
77
93
94
107
80
100
96
82
108
100
81
106
103
95
86
95
72
98
79
106
108
76
99
71
81
86
75
78
106
74
97
93
100
86
82
100
88
107
106
97
75
105
103
108
106
102
97
101
90
71
72
85
70
101
78
91
74
100
94
104
80
104
94
92
89
105
73
83
79
72
72
74
96
74
74
87
109
77
73
104
92
73
79
106
75
89
73
101
70
98
75
101
98
91
92
93
75
77
100
79
83
100
75
79
100
95
99
89
80
77
80
104
87
105
87
88
73
71
101
78
100
71
74
87
88
74
101
86
97
106
98
74
77
79
98
79
71
79
73
76
91
102
109
109
82
94
85
105
81
96
81
79
109
84
73
85
89
86
81
73
84
89
107
99
85
88
93
82
96
107
84
102
101
71
73
87
87
89
83
84
90
76
101
94
81
96
74
94
87
86
94
76
92
106
95
74
90
88
100
104
89
74
77
73
72
72
83
86
92
81
72
81
102
82
98
101
88
109
92
84
80
83
86
89
89
84
71
87
70
102
88
81
72
101
74
108
106
98
107
74
74
79
93
104
83
98
79
74
98
72
88
70
101
92
89
78
90
104
98
74
87
91
72
93
94
91
94
95
84
101
97
107
105
75
73
81
74
85
92
87
70
83
93
108
70
106
101
93
73
93
89
83
70
86
77
77
91
93
78
98
77
72
86
73
73
92
100
109
91
75
90
83
93
102
99
86
99
77
76
101
76
76
82
74
83
96
109
95
102
83
100
85
71
92
89
93
98
83
78
82
78
91
88
70
71
73
98
108
83
100
85
102
76
109
79
96
102
81
106
76
73
100
103
96
104
80
74
101
91
79
88
73
83
78
94
104
92
82
75
86
71
79
105
72
89
71
72
75
94
96
108
109
106
89
80
99
73
77
74
82
93
97
89
83
73
107
101
96
108
76
85
92
71
80
79
99
98
90
76
92
76
101
73
104
82
73
109
70
98
99
72
101
97
80
89
102
81
99
99
80
86
109
105
102
83
92
95
103
89
80
83
108
96
97
91
103
81
93
105
89
83
73
76
84
108
85
105
99
83
77
98
104
76
101
102
76
91
78
90
100
92
78
101
105
82
76
98
72
71
76
89
84
76
104
95
89
105
72
80
83
87
106
106
86
92
78
76
79
71
100
94
98
76
79
107
85
90
93
76
93
99
95
87
72
84
79
104
75
86
80
70
109
109
90
106
91
79
77
83
93
94
102
93
97
81
104
75
87
80
109
75
85
71
86
106
99
109
86
95
81
77
101
100
88
100
92
82
95
108
93
108
79
97
109
103
89
75
76
80
86
99
92
86
103
81
96
106
71
101
79
109
85
76
89
73
78
85
81
90
98
85
99
94
102
96
105
75
99
81
89
71
92
76
105
94
101
82
101
72
90
85
80
97
94
100
105
85
86
88
88
75
93
80
90
81
105
83
97
81
109
109
71
98
104
91
84
106
78
74
70
91
78
108
105
91
100
109
72
104
88
93
106
108
78
71
80
86
103
105
109
105
104
109
103
104
106
72
86
90
98
80
83
91
106
108
83
99
95
78
84
107
76
84
70
85
71
104
85
76
98
100
71
108
77
74
73
74
98
91
71
71
105
78
75
105
109
107
86
82
71
80
77
85
90
109
109
95
94
99
90
91
89
82
93
97
75
83
100
71
88
75
102
103
75
82
79
75
97
82
105
79
76
92
108
79
106
79
71
81
85
106
103
107
83
100
87
80
97
90
89
103
100
97
100
84
88
93
87
84
101
73
76
99
94
96
89
80
108
91
83
107
83
75
83
109
98
106
86
81
89
77
87
98
86
77
88
78
89
95
98
105
97
104
81
109
86
108
83
88
80
73
106
70
87
88
87
96
85
92
74
109
82
94
79
81
70
95
83
76
92
87
104
100
93
102
85
109
90
82
82
71
102
89
107
81
91
79
74
93
92
73
106
100
83
99
89
83
101
103
93
86
98
87
82
100
89
77
75
91
107
96
96
102
87
74
86
84
86
105
85
83
103
106
94
76
70
108
108
89
73
92
109
76
92
101
80
106
93
75
105
96
74
72
98
100
97
78
101
71
96
101
72
82
71
103
87
95
82
83
72
105
107
88
75
79
96
82
105
84
89
105
95
99
101
80
107
97
93
107
78
75
89
85
82
74
74
88
101
76
79
70
79
77
76
97
89
102
104
86
86
108
101
95
78
84
86
72
89
78
76
106
89
87
81
103
83
92
105
93
104
108
101
87
102
109
98
104
92
81
106
81
102
98
98
84
86
76
107
90
100
98
92
107
103
100
104
100
84
79
76
86
87
101
77
108
88
95
71
92
103
97
80
98
82
109
78
74
78
82
94
77
101
93
87
93
80
73
86
76
109
99
76
74
98
89
85
78
75
101
90
95
79
93
73
107
98
109
98
79
71
94
78
72
92
88
84
98
107
102
84
95
85
89
87
90
82
72
86
100
103
70
90
87
79
77
100
98
101
90
103
84
88
72
99
92
104
82
98
96
89
83
96
76
93
80
71
102
87
105
88
72
77
83
81
109
77
97
75
80
84
93
107
105
90
97
92
97
74
107
75
88
73
73
83
109
101
72
106
70
88
76
100
88
92
75
94
97
89
106
77
76
86
77
104
86
109
105
83
103
81
108
86
74
84
87
70
72
76
90
74
97
85
73
72
93
86
86
89
75
101
87
90
96
75
82
85
106
96
78
79
109
70
91
99
102
73
77
95
70
74
77
78
73
88
81
70
95
96
77
82
99
102
81
106
90
85
84
89
87
107
90
80
93
97
99
98
91
97
100
88
87
104
97
93
76
103
107
76
102
92
102
97
104
70
95
85
92
106
76
86
107
95
100
86
77
89
73
83
75
76
99
103
106
86
71
105
83
82
87
76
98
82
108
70
91
109
105
91
84
82
82
99
103
84
108
98
78
86
79
102
100
89
106
94
105
107
70
73
102
90
77
101
82
90
84
97
92
99
103
109
75
102
92
96
82
81
75
98
87
105
76
99
71
88
74
92
98
88
86
93
85
94
86
86
79
90
104
82
99
71
74
81
80
86
108
85
70
95
80
71
74
106
88
75
75
82
105
89
86
100
79
109
87
88
98
73
89
77
95
106
80
89
105
88
101
105
89
82
89
85
100
98
70
80
84
76
106
79
90
77
101
104
98
81
109
85
95
85
80
105
89
87
91
106
100
107
104
103
84
71
100
108
85
81
74
76
87
95
106
87
90
72
103
84
86
105
96
71
87
106
100
95
95
82
107
74
100
80
98
82
83
84
87
76
101
93
79
77
82
85
77
88
107
90
83
103
100
85
77
86
105
80
108
70
80
100
89
104
104
97
91
71
80
74
106
92
108
87
77
76
75
108
81
85
108
107
74
73
106
70
71
74
70
95
73
86
76
83
101
85
104
92
83
73
75
103
77
84
80
102
107
97
108
102
78
76
94
75
85
99
107
74
109
73
92
71
75
89
108
97
103
96
85
83
73
94
107
84
87
86
83
73
83
99
84
73
86
85
87
82
81
109
76
74
86
102
78
105
82
101
103
85
94
106
78
85
102
94
88
82
90
103
92
98
107
83
92
71
96
98
89
96
81
86
79
87
107
103
81
91
86
82
101
102
99
90
83
105
99
82
74
87
100
106
76
72
100
80
107
87
91
104
92
86
84
95
99
79
76
109
103
70
87
89
95
94
71
97
93
73
94
90
106
93
102
101
74
75
70
75
73
89
96
106
103
90
105
72
96
92
89
79
95
91
92
90
100
84
96
71
99
92
79
77
71
90
71
104
94
99
105
91
103
85
103
109
106
101
73
96
87
85
74
109
73
104
78
84
76
80
86
75
85
106
104
84
97
104
97
100
89
104
100
89
76
98
80
76
109
96
100
87
78
73
102
105
86
103
93
87
103
90
107
101
99
75
79
70
80
94
90
73
89
74
89
108
80
106
90
93
81
105
82
70
72
90
102
97
85
94
97
93
86
82
93
87
94
71
102
100
101
83
99
78
89
105
78
93
83
77
78
88
92
90
99
93
90
95
90
101
94
79
105
75
72
72
102
70
77
86
75
93
80
73
92
75
102
85
100
108
94
81
101
94
89
98
78
75
94
80
74
78
98
80
79
100
70
108
76
101
73
105
78
74
95
95
85
98
98
70
99
104
88
87
92
71
77
96
84
81
107
109
70
107
87
83
97
102
94
70
96
90
80
102
81
107
92
93
85
96
76
100
82
106
74
71
70
90
98
70
93
102
106
70
85
94
96
71
80
105
99
78
89
85
92
86
107
87
94
99
70
80
108
88
83
89
106
105
90
72
95
99
89
99
82
99
88
100
106
84
92
94
82
77
105
103
93
106
99
87
86
89
78
96
75
96
108
102
90
78
79
104
93
71
80
71
107
84
88
71
87
90
84
109
85
81
78
104
97
80
82
98
90
79
78
104
104
70
86
96
90
84
86
75
83
82
89
99
109
97
98
79
70
97
74
93
83
92
105
71
90
106
96
89
100
102
86
81
75
96
89
104
104
77
95
105
73
108
86
79
73
90
105
92
88
81
100
95
100
92
106
101
80
70
100
83
100
84
101
91
77
80
76
102
70
71
106
73
79
109
85
90
102
96
92
76
108
82
75
74
97
99
105
73
105
102
96
89
88
90
77
101
85
93
73
97
76
76
87
107
70
77
95
77
100
81
90
106
106
108
95
79
97
103
85
76
71
97
98
75
99
81
108
104
99
94
70
81
104
99
93
96
93
93
92
95
76
70
100
92
98
104
72
77
84
106
80
109
105
87
83
96
90
103
107
83
96
77
92
103
76
91
78
96
93
83
75
89
85
96
90
91
85
108
93
77
74
83
72
93
104
103
75
72
87
94
82
71
98
97
107
75
103
86
88
74
76
80
109
82
103
102
100
102
98
89
103
71
84
106
78
100
83
107
90
84
72
100
105
107
76
106
75
100
98
83
92
103
108
85
99
75
75
95
74
85
97
72
103
106
82
87
90
105
74
74
96
100
80
91
87
104
91
96
83
99
100
82
81
87
101
72
107
92
88
85
99
74
83
95
91
94
74
90
75
93
85
76
76
71
108
82
78
78
89
91
101
104
101
75
73
88
109
75
93
100
94
79
88
83
95
88
99
101
102
107
75
95
77
81
79
102
86
89
100
100
77
75
87
90
109
86
90
109
102
85
91
84
78
100
81
72
77
74
81
84
109
98
88
80
105
74
89
73
77
103
74
99
104
96
82
73
85
99
101
92
96
85
76
107
103
70
102
98
86
108
107
70
95
79
107
103
74
77
98
87
106
86
103
106
104
82
86
87
84
90
98
86
73
109
79
90
81
84
95
96
73
104
82
73
93
82
92
101
71
107
90
88
92
109
109
82
103
74
106
89
91
108
73
98
83
76
101
88
92
94
107
84
78
109
86
85
78
83
75
73
88
100
96
101
75
76
82
98
109
70
88
73
97
71
106
89
109
74
102
70
105
84
83
91
77
107
95
83
99
83
95
77
93
89
70
70
79
83
79
99
104
80
86
71
102
92
108
106
104
79
73
75
95
79
88
95
87
74
101
75
106
88
89
78
79
80
74
74
89
99
92
109
90
70
109
91
74
84
72
94
83
107
96
104
103
101
103
96
91
90
87
76
85
92
73
94
101
99
85
98
80
90
105
87
99
74
101
108
86
77
70
108
70
78
81
93
71
87
75
78
90
107
79
95
92
85
87
101
95
96
102
70
101
89
70
105
97
82
78
74
105
81
86
93
105
88
101
81
81
109
75
87
83
101
99
91
101
101
107
98
94
97
95
76
86
104
82
85
78
80
71
102
107
102
72
73
93
81
108
85
85
96
78
86
86
72
84
73
74
106
109
102
72
101
86
79
93
104
87
104
98
75
81
80
84
70
91
79
105
105
102
104
89
78
77
81
83
84
97
96
99
78
76
105
104
84
100
85
106
79
107
101
83
82
92
79
93
104
88
96
101
81
91
91
95
81
72
81
107
98
84
89
86
96
73
106
99
77
73
79
75
71
79
82
107
103
80
76
78
76
87
91
82
79
82
93
95
87
103
93
109
80
83
100
85
88
92
105
99
90
93
108
90
71
98
71
73
97
93
102
77
89
80
105
79
108
84
95
103
106
98
101
73
104
95
96
71
70
101
95
71
98
80
93
79
86
70
109
78
104
107
70
76
89
83
105
93
97
105
97
89
73
104
83
72
80
72
109
101
90
100
100
80
85
97
81
72
102
81
76
81
92
105
99
98
83
72
92
106
76
105
82
85
99
74
109
81
98
86
77
102
108
88
71
109
75
105
73
95
86
108
107
74
93
104
70
72
79
70
82
96
87
83
106
89
82
88
75
108
108
97
94
106
108
98
89
78
101
96
92
107
78
95
74
73
84
104
71
100
109
94
90
86
105
97
91
95
101
90
70
90
104
88
88
89
98
98
97
107
105
94
107
77
77
74
99
87
95
105
101
73
70
80
100
93
82
89
82
86
76
88
77
82
77
92
92
108
78
80
72
101
72
99
78
108
109
108
91
83
95
98
97
100
88
84
90
76
97
108
90
71
103
81
98
100
75
93
73
74
88
84
94
75
74
86
84
88
86
95
101
109
76
101
74
87
76
89
97
91
96
98
105
96
70
86
106
88
106
91
72
99
105
85
90
109
96
105
85
105
86
105
87
102
79
88
97
81
83
89
100
91
102
75
95
108
97
80
95
95
97
94
73
80
79
93
76
76
80
74
75
80
102
75
97
77
102
76
101
82
91
74
105
106
83
102
93
72
72
92
81
88
98
109
83
96
108
98
70
103
76
82
100
108
86
93
108
98
99
81
79
83
86
85
96
99
95
101
75
86
92
101
80
76
85
97
87
99
78
85
85
94
82
88
96
78
78
70
96
102
108
103
103
99
82
90
98
91
98
102
80
109
75
106
74
82
96
98
92
82
71
77
76
82
108
102
88
108
71
104
76
104
99
93
76
98
97
104
95
84
93
90
109
77
78
106
74
106
100
88
99
76
93
108
96
82
97
82
107
80
103
73
81
96
103
92
86
73
81
89
70
93
102
96
73
79
78
102
78
108
73
83
99
105
90
88
76
78
81
101
98
106
88
98
86
71
80
77
103
95
84
91
71
94
78
82
93
82
105
102
71
105
72
98
77
98
85
74
86
79
83
87
101
96
104
99
100
84
78
77
108
76
97
71
84
72
102
94
104
78
97
98
84
104
79
87
73
86
102
98
70
107
73
104
75
76
105
108
106
95
88
79
96
88
104
77
75
74
84
109
107
76
77
98
109
105
71
88
94
109
109
88
93
101
106
88
101
102
97
84
105
96
72
82
105
100
81
109
84
92
97
79
94
99
84
77
84
101
97
86
101
79
73
84
107
74
94
94
98
108
106
109
105
72
86
85
87
95
92
86
96
71
102
92
96
91
80
92
78
99
75
89
109
93
76
93
87
108
77
83
91
104
99
93
105
78
80
97
83
82
89
90
94
98
98
76
81
109
104
87
70
107
87
80
71
102
70
92
90
106
88
95
79
105
76
109
74
99
87
78
93
100
80
79
88
101
100
102
91
71
76
94
106
78
76
101
74
91
85
106
92
92
101
106
95
104
109
108
75
101
99
108
92
93
97
86
107
73
94
108
99
84
76
105
82
75
74
78
71
99
98
108
75
91
101
76
99
92
86
84
85
79
92
107
80
77
100
70
81
101
95
108
76
97
96
79
95
106
80
108
101
94
85
109
106
78
104
76
98
77
87
107
79
102
91
74
99
77
90
97
90
81
71
86
76
88
96
73
97
99
88
79
101
100
103
92
87
94
95
75
101
83
104
83
90
100
86
82
98
76
105
93
77
93
94
100
91
80
92
72
71
71
81
78
71
86
102
104
107
89
88
82
75
79
97
74
94
80
87
91
80
106
98
84
91
74
92
77
90
98
108
73
82
93
83
99
82
107
91
74
101
89
109
70
85
96
82
72
98
74
84
93
107
72
78
100
108
79
89
80
105
100
72
103
97
78
94
76
103
75
95
90
85
94
100
106
106
103
91
103
94
91
79
88
91
85
83
86
79
109
101
70
95
80
81
97
101
73
98
90
77
79
89
80
101
102
87
77
83
106
85
109
76
81
86
99
97
89
107
73
92
83
72
71
84
70
77
78
70
86
72
93
109
70
104
107
75
99
85
70
80
91
78
108
97
103
75
72
101
109
85
87
85
89
82
91
82
108
101
71
75
101
70
101
78
104
102
77
103
76
94
86
88
74
96
82
80
74
109
93
86
104
81
78
103
71
108
89
95
92
98
100
100
79
101
105
89
78
90
84
74
82
81
109
107
85
105
96
78
84
108
91
109
98
102
71
84
94
100
83
107
78
91
93
107
83
86
98
102
102
76
89
92
100
72
75
91
102
91
77
102
100
104
73
97
92
86
74
100
109
91
79
79
88
87
74
85
97
95
80
76
83
75
99
100
90
98
87
85
101
109
99
102
107
89
89
99
76
96
87
71
92
106
78
74
100
104
98
77
82
82
91
108
74
89
76
82
84
103
107
92
88
94
80
86
72
103
89
99
101
100
85
100
92
80
88
102
97
101
70
88
77
109
107
109
77
85
91
72
91
103
77
85
97
104
85
96
83
106
90
80
108
74
77
75
84
108
100
80
72
109
102
89
74
106
104
104
99
95
103
99
86
107
78
75
103
98
82
105
100
74
92
98
83
82
96
77
108
80
100
82
72
74
106
86
74
88
97
100
101
72
81
86
94
81
102
84
91
100
87
84
84
103
95
106
97
100
75
106
85
75
102
100
105
75
90
71
92
94
87
90
105
102
89
71
74
90
101
88
100
78
107
102
74
74
83
88
78
105
97
105
94
76
75
85
76
72
101
77
72
94
90
81
97
90
86
70
74
94
90
73
98
80
80
82
86
89
79
99
83
79
73
83
79
85
99
70
95
81
100
72
71
95
106
82
77
84
106
76
94
78
70
76
85
90
84
70
105
101
108
76
79
71
82
87
72
109
102
103
77
103
72
103
95
105
71
101
91
85
107
81
87
96
105
107
102
84
88
74
90
95
82
82
107
106
101
70
98
92
91
95
75
72
86
99
75
84
104
81
77
91
106
84
100
86
91
70
92
94
100
103
73
77
81
102
85
94
106
104
84
82
83
70
99
109
81
83
72
104
87
71
99
96
103
70
85
87
100
109
104
89
87
101
71
73
97
88
103
85
97
76
87
87
102
70
100
70
88
104
88
109
106
94
99
74
90
70
99
98
108
103
88
99
83
83
91
106
73
79
88
94
90
74
81
92
100
76
102
76
82
74
98
83
81
103
79
99
82
77
92
73
98
76
86
109
102
82
101
103
99
108
73
80
92
107
101
87
109
99
74
109
96
88
94
107
86
90
103
82
81
106
83
83
95
101
106
96
97
73
86
98
101
102
97
85
97
71
104
105
81
88
71
91
98
98
101
83
96
78
89
79
93
78
109
104
107
82
74
82
108
97
93
106
88
102
72
92
79
93
100
83
79
70
109
108
80
98
78
84
86
107
79
81
79
81
92
71
86
82
72
101
103
97
90
71
75
83
87
109
79
86
104
99
88
83
93
98
74
93
105
103
73
74
72
98
87
74
79
74
71
78
76
96
97
90
109
81
96
86
93
96
104
105
100
91
92
95
70
108
87
70
95
98
81
83
93
97
108
98
95
80
88
101
92
74
108
108
95
104
77
70
74
109
100
71
73
89
91
91
72
73
80
82
103
79
102
77
93
78
80
88
83
74
103
80
90
77
86
78
103
92
108
108
70
76
81
88
86
95
85
103
91
83
109
108
89
109
95
97
88
105
97
101
75
86
101
78
93
96
96
89
78
85
106
88
82
85
72
75
91
91
73
98
96
73
94
98
94
75
94
94
70
99
96
72
95
101
74
80
94
91
89
76
91
108
106
105
93
80
81
73
88
95
104
77
79
83
75
84
93
107
73
109
80
82
101
106
96
103
85
78
76
78
107
104
94
103
83
80
80
93
100
73
78
74
82
71
94
73
107
75
102
108
81
70
77
95
80
106
77
101
104
87
95
105
92
108
71
79
92
76
81
108
73
108
85
92
103
73
103
75
71
103
82
86
86
104
85
74
96
97
102
85
89
84
79
84
70
73
71
85
79
70
98
102
95
81
99
101
71
83
81
105
104
71
87
89
95
91
97
108
102
79
100
72
89
100
93
95
71
103
109
87
90
85
91
81
95
73
106
93
105
76
108
107
83
100
72
109
70
104
96
99
90
83
102
79
72
88
96
107
87
85
89
79
101
74
90
95
73
83
81
92
79
84
81
82
75
85
82
106
97
71
90
97
100
78
108
105
78
95
73
70
96
83
108
83
98
101
73
78
109
96
105
98
71
92
103
100
87
83
95
96
97
95
88
108
100
103
87
77
106
74
86
73
80
107
101
93
72
77
88
96
91
72
88
79
98
108
103
90
78
78
70
79
70
89
81
78
98
87
86
93
86
96
73
85
105
74
108
76
86
90
93
100
98
106
88
75
87
75
95
109
105
93
95
80
104
77
85
94
93
77
105
80
96
98
98
96
105
107
105
80
109
93
98
97
107
87
81
103
96
90
73
91
104
96
91
89
70
90
109
84
70
98
81
78
81
88
71
76
105
75
77
80
109
94
102
73
70
70
97
73
75
73
85
102
91
89
89
83
90
96
72
87
93
78
108
78
97
97
82
71
88
93
104
70
86
108
74
99
91
80
82
99
98
79
97
109
98
93
105
95
74
80
70
97
90
96
109
74
87
86
106
83
104
79
104
73
95
72
109
71
106
108
100
83
99
108
79
87
92
95
108
107
95
106
95
97
109
81
105
89
93
70
80
71
87
81
87
89
89
106
95
77
91
83
109
91
102
81
102
78
82
76
89
105
80
93
100
71
101
72
90
92
97
90
75
98
94
85
76
87
85
89
88
101
77
109
103
89
109
78
79
73
92
71
80
71
87
98
76
107
107
70
95
97
108
90
91
70
101
96
103
73
73
109
73
79
81
105
106
79
78
98
97
96
90
94
90
71
74
88
88
93
87
98
80
105
70
77
97
82
76
100
81
72
101
88
81
107
71
103
84
76
83
86
92
107
92
81
86
104
83
96
103
78
73
93
78
108
86
75
108
102
74
89
97
108
83
87
81
82
103
89
71
96
90
73
72
98
97
97
84
90
80
90
81
92
105
95
88
107
70
109
108
90
97
71
96
70
105
76
88
74
80
76
98
98
92
100
78
109
90
78
85
93
105
77
86
88
86
103
79
84
84
91
97
94
87
93
76
84
73
79
86
84
84
107
70
100
96
87
101
76
104
103
88
73
96
73
95
75
106
109
89
88
81
84
76
98
77
75
103
71
73
72
91
97
97
100
98
77
88
73
78
95
72
109
85
102
92
87
75
83
99
74
88
96
85
97
100
87
75
82
81
80
90
86
80
103
88
79
70
77
106
74
104
70
77
95
108
100
100

