gil262
262
1 -99 -97
2 -59 50
3 0 14
4 -17 -66
5 -69 -19
6 31 12
7 5 -41
8 -12 10
9 -64 70
10 -12 85
11 -18 64
12 -77 -16
13 -53 88
14 83 -24
15 24 41
16 17 21
17 42 96
18 -65 0
19 -47 -26
20 85 36
21 -35 -54
22 54 -21
23 64 -17
24 55 89
25 17 -25
26 -61 66
27 -61 26
28 17 -72
29 79 38
30 -62 -2
31 -90 -68
32 52 66
33 -54 -50
34 8 -84
35 37 -90
36 -83 49
37 35 -1
38 7 59
39 12 48
40 57 95
41 92 28
42 -3 97
43 -7 52
44 42 -15
45 77 -43
46 59 -49
47 25 91
48 69 -19
49 -82 -14
50 74 -70
51 69 59
52 29 33
53 -97 9
54 -58 9
55 28 93
56 7 73
57 -28 73
58 -76 55
59 41 42
60 92 40
61 -84 -29
62 -12 42
63 51 -45
64 -37 46
65 -97 35
66 14 89
67 60 58
68 -63 -75
69 -18 34
70 -46 -82
71 -86 -79
72 -43 -30
73 -44 7
74 -3 -20
75 36 41
76 -30 -94
77 79 -62
78 51 70
79 -61 -26
80 6 94
81 -19 -62
82 -20 51
83 -81 37
84 7 31
85 52 12
86 83 -91
87 -7 -92
88 82 -74
89 -70 85
90 -83 -30
91 71 -61
92 85 11
93 66 -48
94 78 -87
95 9 -79
96 -36 4
97 66 39
98 92 -17
99 -46 -79
100 -30 -63
101 -42 63
102 20 42
103 15 98
104 1 -17
105 64 20
106 -96 85
107 93 -29
108 -40 -84
109 86 35
110 91 36
111 62 -8
112 -24 4
113 11 96
114 -53 62
115 -28 -71
116 7 -4
117 95 -9
118 -3 17
119 53 -90
120 58 -19
121 -83 84
122 -1 49
123 -4 17
124 -82 -3
125 -43 47
126 6 -6
127 70 99
128 68 -29
129 -94 -30
130 -94 -20
131 -21 77
132 64 37
133 -70 -19
134 88 65
135 2 29
136 33 57
137 -70 6
138 -38 -56
139 -80 -95
140 -5 -39
141 8 -22
142 -61 -76
143 76 -22
144 49 -71
145 -30 -68
146 1 34
147 77 79
148 -58 64
149 82 -97
150 -80 55
151 81 -86
152 39 -49
153 -67 72
154 -25 -89
155 -44 -95
156 32 -68
157 -17 49
158 93 49
159 99 81
160 10 -49
161 63 -41
162 38 39
163 -28 39
164 -2 -47
165 38 8
166 -42 -6
167 -67 88
168 19 93
169 40 27
170 -61 56
171 43 33
172 -18 -39
173 -69 19
174 75 -18
175 31 85
176 25 58
177 -16 36
178 91 15
179 60 -39
180 49 -47
181 42 33
182 16 -81
183 -78 53
184 53 -80
185 -46 -26
186 -25 -54
187 69 -46
188 0 -78
189 -84 74
190 -16 16
191 -63 -14
192 51 -77
193 -39 61
194 5 97
195 -55 39
196 70 -14
197 0 95
198 -45 7
199 38 -24
200 50 -37
201 59 71
202 -73 -96
203 -29 72
204 -47 12
205 -88 -61
206 -88 36
207 -46 -3
208 26 -37
209 -39 -67
210 92 27
211 -80 -31
212 93 -50
213 -20 -5
214 -22 73
215 -4 -7
216 54 -48
217 -70 39
218 54 -82
219 29 41
220 -87 51
221 -96 -36
222 49 8
223 -5 54
224 -26 43
225 -11 60
226 40 61
227 82 35
228 -92 12
229 -93 -86
230 -66 63
231 -72 -87
232 -57 -84
233 23 52
234 -56 -62
235 -19 59
236 63 -14
237 -13 38
238 -19 87
239 44 -84
240 98 -17
241 -16 62
242 3 66
243 26 22
244 -38 -81
245 70 80
246 17 -35
247 96 -83
248 -77 80
249 -14 44
250 -33 33
251 33 -33
252 70 0
253 -50 60
254 -50 -60
255 75 0
256 0 75
257 -75 0
258 0 -75
259 40 80
260 40 -80
261 -60 20
262 -60 -20
101
101
86
89
76
86
87
109
108
77
93
93
95
93
91
105
85
91
100
103
93
78
78
72
100
83
100
82
70
100
108
97
107
90
83
100
83
80
78
102
93
74
82
105
83
102
78
98
99
73
87
73
74
85
108
87
106
82
92
77
94
91
101
74
90
82
86
109
80
95
95
84
73
108
95
109
97
100
102
99
102
78
76
84
74
101
106
96
78
98
80
99
90
100
102
103
75
102
87
108
76
105
75
90
104
84
92
105
87
82
75
78
87
99
84
104
84
109
87
92
75
108
96
78
99
95
73
97
86
93
87
97
71
96
74
94
91
105
89
76
109
77
78
97
85
78
109
87
81
77
99
83
71
102
108
100
105
108
85
72
98
72
100
91
80
92
85
98
106
84
70
87
100
87
85
86
73
106
72
103
72
77
102
92
82
83
84
102
75
92
82
75
87
85
95
108
103
75
74
76
108
100
75
98
99
95
98
75
74
100
78
105
82
94
104
89
101
88
96
108
98
70
80
76
94
70
97
82
93
103
75
101
74
97
89
85
107
77
107
104
105
94
101
85
70
103
73
88
80
71
97
78
77
83
95
97
71
99
104
86
98
104
70
76
107
83
86
72
100
106
74
71
93
103
95
107
77
73
81
106
74
79
109
107
101
82
95
91
81
106
102
103
77
84
77
99
72
99
83
82
93
85
85
71
104
95
99
91
87
99
72
71
100
80
77
93
82
99
73
74
101
109
98
103
79
93
71
72
73
88
81
108
79
86
94
71
95
102
88
84
83
101
86
71
93
107
90
106
75
102
107
94
91
99
75
84
80
82
92
92
101
74
86
70
81
109
92
80
108
109
88
96
98
71
84
82
78
95
82
83
88
84
102
78
74
85
107
87
87
84
75
103
108
90
84
88
100
75
95
74
71
92
98
85
91
98
72
103
78
92
79
72
82
92
75
92
98
98
89
88
84
98
78
81
96
103
105
90
72
71
103
85
79
89
102
92
71
77
75
71
94
75
96
72
97
86
88
102
76
74
109
79
96
84
100
82
70
97
95
100
92
90
100
96
93
94
76
92
77
72
86
98
70
91
92
85
92
91
71
93
104
94
95
108
107
82
85
73
73
73
101
85
72
91
70
93
97
82
84
71
78
92
71
80
85
84
85
85
108
90
94
104
93
92
103
94
108
101
73
79
71
78
98
102
77
90
77
98
82
102
78
83
82
72
96
97
107
95
90
89
81
107
87
89
76
87
101
71
92
76
89
100
88
104
80
79
91
71
97
96
88
72
106
105
72
92
80
108
90
90
75
73
90
87
104
70
92
76
89
77
106
80
91
80
93
79
94
80
73
91
90
94
84
99
96
73
105
105
103
106
103
80
88
92
87
101
99
97
102
93
91
104
103
96
80
99
70
100
84
72
104
101
105
94
94
100
88
91
84
86
76
107
101
78
81
100
81
101
95
96
106
73
84
74
83
92
72
100
82
78
74
105
95
93
76
94
77
109
90
79
82
91
73
95
106
78
86
79
104
80
92
107
71
96
106
106
109
84
108
101
81
78
80
97
103
108
92
88
106
85
95
108
82
96
109
78
94
87
79
78
83
108
90
108
93
91
94
103
109
89
74
100
93
75
79
105
88
73
90
74
77
76
93
91
85
78
80
79
98
97
100
97
83
76
105
98
101
73
105
90
101
90
108
82
83
109
101
97
73
109
76
85
101
107
78
92
90
92
82
100
102
101
93
96
103
85
73
84
79
98
105
75
98
95
96
94
78
84
83
104
99
102
108
72
82
73
88
71
90
99
107
91
105
106
91
90
88
105
106
107
82
87
72
74
95
105
72
98
100
105
81
72
85
78
105
109
101
70
109
84
101
105
84
85
83
89
100
81
101
103
108
87
71
79
109
70
106
102
83
100
101
107
96
95
79
100
106
106
78
75
92
90
98
105
107
73
94
104
74
99
88
79
88
103
102
82
95
105
99
105
97
93
98
74
86
78
75
73
97
96
92
95
92
106
82
88
89
81
96
105
75
81
78
82
92
85
102
73
88
73
107
103
105
85
99
79
93
85
103
108
101
103
96
90
79
84
76
72
86
91
89
100
89
91
105
87
73
87
87
83
79
71
73
106
77
100
95
105
107
76
83
77
102
71
89
108
108
72
97
72
75
104
90
87
82
96
81
94
88
86
82
96
108
99
103
89
108
106
95
88
90
98
96
100
108
71
96
86
83
70
96
72
86
96
74
92
72
82
93
88
103
106
79
96
71
84
106
101
70
94
98
93
81
96
94
74
87
81
108
95
92
78
106
97
97
91
99
90
90
95
102
84
72
75
101
84
80
92
100
93
83
89
89
71
104
78
92
86
71
99
102
96
79
103
103
90
83
73
98
90
96
88
84
82
90
81
93
83
103
97
101
97
108
91
99
86
102
100
98
105
100
86
102
96
92
90
102
83
75
73
105
83
89
85
77
91
76
99
102
86
100
84
85
97
103
100
81
98
101
82
82
106
79
82
99
103
83
87
95
100
99
93
72
93
71
77
108
86
88
106
89
92
79
101
75
86
109
84
83
92
92
96
105
81
70
86
86
109
85
78
75
94
90
83
103
81
81
74
79
107
77
94
86
101
80
83
95
95
78
90
72
75
99
93
74
102
74
100
86
99
72
70
106
105
80
99
76
101
71
82
79
91
75
95
76
105
88
88
90
76
107
95
97
104
99
90
91
90
76
82
84
80
109
89
76
91
85
79
74
99
98
94
75
92
106
85
91
81
85
90
108
78
74
84
77
82
106
87
92
100
106
97
95
100
85
85
71
78
97
70
71
91
72
102
84
97
106
95
93
108
81
98
84
92
85
86
85
81
81
108
94
76
94
105
72
104
78
91
86
73
108
103
99
76
106
90
97
103
83
70
71
106
98
72
83
78
82
96
80
93
96
97
73
91
86
105
79
75
82
99
79
93
86
99
96
94
104
81
91
72
93
107
76
84
90
76
88
85
91
73
71
103
80
109
84
96
84
83
75
85
95
92
98
72
103
106
75
89
99
101
89
107
96
75
105
73
103
109
76
80
87
88
74
70
79
89
80
107
95
109
100
103
95
104
89
76
79
100
103
78
81
76
108
96
108
73
97
89
83
101
102
95
70
86
80
82
94
109
76
92
94
96
76
104
105
109
73
81
95
96
73
100
76
87
108
88
98
76
106
100
93
90
95
75
79
83
73
76
78
97
73
84
75
108
80
72
93
100
101
85
85
88
100
99
74
102
80
98
80
91
100
75
77
85
79
74
84
87
70
107
102
109
103
107
93
97
91
71
74
93
90
99
106
98
86
92
77
96
105
78
104
79
72
102
83
94
77
95
92
90
103
103
101
97
93
95
84
78
83
70
74
80
91
72
103
71
79
102
100
95
86
77
96
72
78
83
79
100
73
87
95
91
99
89
85
100
107
98
88
93
104
77
100
108
94
77
107
71
96
105
94
105
88
78
106
102
109
100
73
81
101
100
77
107
107
96
77
103
98
91
105
108
107
98
88
91
91
83
77
89
81
101
77
103
70
73
84
80
86
72
89
107
70
101
71
82
71
76
109
74
82
106
88
76
100
95
71
75
91
98
103
103
105
91
88
97
89
79
104
80
72
95
71
99
71
98
91
96
70
85
101
109
74
104
107
85
90
99
79
77
78
88
104
87
105
91
95
70
73
87
109
100
76
98
91
89
86
108
90
77
104
92
85
87
91
84
83
94
93
102
73
81
107
71
79
98
88
83
106
104
93
105
107
109
106
80
77
109
99
106
100
80
102
96
77
74
108
103
104
105
79
97
109
94
91
94
94
80
71
93
89
93
86
94
82
107
73
106
86
86
103
85
106
98
104
82
93
76
86
71
107
100
109
91
76
94
101
102
84
97
78
88
92
70
75
77
74
85
89
78
108
77
90
83
74
83
85
88
77
86
81
102
74
88
90
76
108
95
90
102
105
108
92
100
107
99
93
86
75
101
76
70
73
83
99
86
78
99
70
93
101
88
92
108
71
93
92
93
95
98
106
86
93
98
97
74
95
100
107
105
85
89
95
82
83
85
83
94
108
74
74
78
93
73
103
103
89
82
91
109
107
79
92
78
88
75
94
81
70
72
94
71
88
98
85
104
76
86
97
105
86
96
74
109
78
83
92
105
103
81
96
100
90
77
72
87
83
95
75
98
97
105
85
103
108
80
83
90
82
93
102
97
83
76
70
105
86
92
88
73
107
72
91
99
82
70
95
72
108
86
71
107
81
109
89
81
105
75
76
96
103
73
73
101
91
103
77
74
95
93
78
72
84
96
99
89
93
96
81
98
108
96
91
102
84
101
106
102
96
90
86
88
74
75
99
70
86
89
104
73
79
86
92
109
74
97
105
70
98
84
101
75
100
92
71
75
84
105
95
93
79
79
81
76
107
91
92
75
91
74
102
77
80
71
82
80
77
91
92
107
97
82
92
85
90
83
82
88
104
80
81
95
95
72
70
75
74
105
99
100
100
97
79
94
72
87
89
90
77
86
109
95
90
74
86
72
96
77
76
103
103
108
71
98
81
70
77
94
79
85
81
73
88
96
109
109
81
79
73
81
74
89
92
98
77
75
89
74
108
106
94
87
91
107
74
72
108
104
93
108
74
70
101
75
88
93
102
104
98
96
89
104
108
85
104
76
82
78
80
93
72
106
96
81
99
102
89
72
71
88
79
109
99
101
80
89
82
89
90
98
91
79
105
84
91
106
89
78
81
84
81
97
74
76
89
92
87
85
93
83
100
92
91
73
90
82
81
92
95
108
106
80
108
71
91
79
87
80
104
79
98
91
93
108
108
89
82
88
95
96
102
80
106
70
71
81
79
109
89
91
103
70
78
76
85
95
100
72
80
70
85
104
85
91
83
80
93
105
90
85
75
86
99
87
104
84
86
76
74
86
87
70
83
94
85
101
86
102
87
71
87
102
87
95
107
78
100
84
101
100
82
92
75
72
101
105
72
86
78
98
100
92
109
101
81
93
103
84
95
85
106
101
74
102
79
70
98
90
71
89
92
82
90
84
103
94
99
77
81
102
80
100
91
105
96
73
82
91
102
95
80
100
77
73
75
95
100
101
99
72
93
70
106
106
89
94
71
88
86
91
107
74
91
81
72
91
98
105
95
104
95
73
89
107
97
75
96
89
79
106
87
96
101
91
95
78
71
105
91
86
93
91
86
108
71
73
92
75
107
101
87
84
93
79
75
74
102
100
75
100
104
103
93
74
88
104
75
76
109
93
76
72
81
94
99
106
94
101
70
88
90
86
89
86
102
99
76
80
75
75
83
87
78
84
108
78
70
102
70
85
75
74
72
101
81
99
72
93
94
92
85
108
96
90
79
104
90
92
109
102
105
88
95
83
90
103
70
83
78
108
80
105
88
97
105
86
78
107
102
84
71
86
91
101
101
84
88
104
98
106
87
109
87
100
73
80
83
82
90
75
105
98
74
71
109
89
93
75
104
92
77
97
98
84
79
100
72
89
84
71
78
70
88
98
102
77
72
102
90
100
87
92
78
97
90
104
74
82
70
100
70
104
86
74
86
85
97
89
73
107
106
101
109
103
98
80
93
70
92
101
94
102
79
71
70
96
74
101
109
85
90
88
97
103
71
104
85
97
80
92
89
105
100
89
72
101
100
70
77
108
109
85
88
79
89
99
80
79
96
100
97
73
91
97
96
79
74
91
100
88
70
77
96
76
81
85
94
80
93
83
78
97
83
101
79
87
85
98
93
71
94
109
76
78
88
101
84
74
93
83
93
107
82
83
101
107
74
79
96
73
71
104
79
84
70
78
84
70
91
82
109
79
82
82
95
84
105
85
100
80
90
96
80
97
101
72
89
94
77
96
77
88
97
93
73
70
70
88
103
85
91
92
71
79
102
73
97
108
109
89
81
95
96
97
77
91
109
74
99
77
107
96
102
75
107
106
91
77
107
99
71
91
86
88
75
88
81
108
83
77
94
89
83
97
94
95
107
80
91
89
92
105
108
70
99
108
101
78
94
91
94
103
101
97
90
70
99
89
83
81
76
88
75
92
89
109
102
106
106
88
71
79
76
89
81
108
75
82
87
91
89
104
101
107
72
101
72
102
100
90
99
97
109
100
100
107
108
76
87
90
75
75
90
107
98
93
88
104
103
78
73
79
109
90
89
96
97
97
104
103
73
92
75
83
85
97
98
70
107
77
89
103
70
82
106
84
94
86
98
107
102
94
75
91
90
91
99
78
79
77
91
98
80
101
98
105
101
103
107
101
95
72
76
96
98
92
80
91
82
107
88
101
105
100
85
87
87
99
82
77
83
104
71
95
89
80
104
89
101
87
72
88
87
93
80
86
72
73
93
72
75
108
73
78
103
88
80
74
108
88
85
101
84
81
78
102
101
82
94
92
84
72
105
71
108
109
85
105
79
74
104
99
108
106
76
93
73
73
82
94
99
76
102
77
108
107
95
87
76
85
98
82
83
90
95
89
93
95
100
81
80
86
72
107
74
92
99
92
95
95
76
105
89
95
100
103
88
75
89
89
77
88
77
75
105
70
72
79
107
108
75
86
90
77
79
98
104
90
93
89
104
90
79
84
97
95
102
105
74
99
94
85
105
75
79
70
95
99
102
97
70
90
83
87
78
72
100
94
100
85
74
109
108
75
73
95
81
94
94
92
106
75
101
76
103
71
97
85
76
73
87
87
85
99
93
78
108
93
78
72
102
83
89
88
92
97
100
98
105
91
91
71
87
81
102
99
88
75
89
78
89
105
85
72
73
95
103
105
75
103
95
96
79
103
76
73
72
84
87
92
106
79
77
84
98
103
73
85
91
79
73
106
78
82
87
86
73
92
91
105
91
99
94
109
79
78
74
90
87
76
97
70
76
81
84
105
91
92
102
105
97
84
79
81
90
108
76
95
94
76
87
86
94
99
107
89
101
74
76
105
106
74
92
81
102
105
72
79
105
81
77
86
97
81
101
90
78
104
78
92
95
95
101
103
89
86
86
98
98
82
80
95
105
70
87
98
72
71
81
70
100
76
94
101
93
94
81
95
97
109
76
93
101
91
107
94
103
77
96
73
70
86
95
108
107
86
98
84
84
92
88
102
93
95
81
102
82
92
93
102
100
91
102
74
80
98
75
105
102
94
87
102
87
79
105
71
80
76
93
102
71
95
83
71
92
82
94
97
106
106
96
96
78
90
92
82
95
83
108
97
86
83
108
88
96
100
87
82
97
87
88
79
108
96
75
72
72
108
86
77
101
96
106
85
80
107
94
78
83
79
78
94
72
84
95
89
79
94
71
99
102
104
99
104
89
80
73
82
98
101
103
108
98
102
75
101
89
85
76
94
83
85
97
87
92
103
81
103
77
107
74
83
102
93
94
89
78
78
75
77
74
101
90
100
98
77
83
71
82
97
102
106
72
109
109
86
105
102
104
75
89
101
105
98
106
88
90
106
84
98
75
73
95
93
104
94
101
100
90
93
91
93
101
106
97
79
106
97
104
81
78
85
107
100
91
88
106
105
109
99
83
101
71
94
81
100
95
74
98
100
96
93
107
76
87
70
71
76
72
81
96
102
73
101
93
86
79
76
76
103
80
83
98
70
81
83
105
90
105
71
105
76
93
88
99
107
85
109
73
83
79
78
98
95
91
98
109
101
79
72
83
98
100
83
74
109
80
82
87
96
101
103
92
76
89
77
82
84
72
88
72
101
88
88
93
100
75
78
83
104
106
106
93
74
103
84
74
107
84
81
106
93
74
88
72
108
85
86
73
78
86
87
76
104
73
70
82
107
97
87
96
72
88
75
75
72
75
99
91
87
84
97
91
105
106
75
95
101
79
73
79
89
81
106
100
70
107
105
105
78
100
86
108
100
81
74
92
99
102
75
76
89
90
89
81
92
100
96
73
78
105
95
109
85
72
80
89
71
79
98
81
84
86
83
86
108
76
81
97
83
90
107
86
73
85
75
109
87
72
95
102
87
97
96
91
91
106
91
90
97
75
103
90
102
70
109
102
88
108
70
89
88
94
82
105
96
101
85
86
97
78
87
101
105
89
100
96
75
97
89
96
78
97
96
70
83
92
94
70
89
102
99
85
107
81
105
108
93
83
96
101
99
86
98
86
107
79
99
92
91
100
75
90
78
72
79
106
107
96
108
99
94
107
86
108
92
93
96
96
89
109
92
82
84
88
94
82
85
85
100
81
93
83
73
105
103
95
82
97
70
83
80
80
80
99
96
71
97
97
87
100
90
108
97
100
84
92
108
89
88
106
104
108
96
78
91
109
83
72
90
105
77
107
74
75
93
94
88
102
100
109
109
81
91
88
87
108
107
75
100
106
74
86
104
72
85
101
96
85
81
74
95
106
103
105
90
100
88
101
80
80
76
73
100
70
81
74
77
97
82
75
85
78
70
104
105
107
83
88
105
90
90
93
89
101
76
77
79
92
70
94
70
101
73
93
74
84
78
104
92
76
72
85
89
76
97
90
94
109
90
71
78
75
101
105
88
106
109
80
82
91
73
91
75
95
84
106
104
91
81
76
93
76
109
90
78
101
109
107
78
71
74
98
95
73
82
70
91
96
73
104
76
80
80
106
95
107
84
102
94
90
82
76
77
74
106
88
93
97
73
75
80
97
84
105
100
75
89
92
100
88
104
95
106
76
91
109
90
92
98
82
107
81
98
90
71
86
78
73
78
71
78
91
101
106
87
101
77
82
75
83
81
105
75
83
103
70
74
90
99
104
108
86
89
106
95
100
74
103
73
83
72
79
106
97
93
75
91
92
81
93
103
91
83
92
97
86
74
79
78
91
99
103
77
99
102
74
84
84
109
93
84
104
77
82
71
94
72
99
73
96
73
109
102
108
89
80
74
103
106
70
95
95
107
98
90
87
75
92
78
97
89
90
102
103
107
96
85
90
85
99
80
103
85
82
86
87
77
70
95
77
80
108
75
86
105
105
76
84
88
109
103
91
86
107
87
104
91
96
91
86
70
74
96
99
85
75
106
74
101
86
71
74
92
73
100
72
101
75
76
88
109
88
70
74
84
107
95
99
101
75
81
72
97
81
98
98
104
97
71
71
98
95
82
93
78
92
105
101
81
89
106
101
73
107
108
70
106
104
103
95
97
80
103
98
71
96
101
102
104
99
103
92
92
106
80
78
78
94
99
101
107
106
92
106
109
86
72
71
97
82
102
86
94
72
94
90
96
94
97
78
75
82
88
83
91
94
90
85
91
78
81
104
93
79
92
71
98
107
82
93
82
98
93
72
77
83
109
74
107
99
103
98
90
109
77
106
102
92
87
98
102
109
83
102
101
71
81
83
93
71
74
72
75
88
75
83
87
104
108
81
98
81
70
73
109
101
99
83
103
91
72
77
95
82
73
71
99
83
84
88
73
101
105
80
108
91
104
80
82
96
83
78
83
93
102
101
76
82
92
101
100
108
108
103
78
102
100
75
105
83
100
93
85
106
78
102
79
99
92
95
102
106
83
99
79
74
79
93
102
99
80
80
102
86
99
94
75
104
107
83
78
70
89
98
88
97
105
72
82
98
104
104
93
95
91
95
70
70
98
81
100
73
93
92
77
90
93
75
85
89
94
93
105
93
75
104
107
104
83
71
87
101
99
92
101
86
100
74
103
105
102
82
94
91
85
72
73
80
83
79
94
89
102
75
75
79
75
101
94
71
91
100
84
103
93
89
104
80
85
76
84
84
108
86
76
82
103
86
97
79
92
72
108
95
82
91
84
93
88
74
81
79
73
85
81
70
103
81
92
108
70
77
107
79
74
86
102
109
84
70
70
104
96
104
104
108
74
87
75
70
107
79
76
80
78
84
88
90
80
90
105
107
95
109
85
105
82
74
84
101
98
94
72
98
96
101
73
103
95
85
98
83
98
93
70
81
73
88
80
76
96
78
81
101
105
100
98
98
76
107
85
89
91
95
103
78
83
105
73
73
72
103
79
100
87
74
80
75
90
104
104
100
80
100
90
89
83
75
98
84
70
103
74
82
71
97
91
91
81
99
78
74
109
100
91
88
98
71
99
109
98
70
97
81
87
99
86
88
86
104
101
77
98
96
91
96
85
93
107
74
91
74
82
88
71
76
94
79
89
77
100
88
88
105
99
84
93
77
83
73
104
100
74
77
80
100
96
98
77
89
73
75
71
88
83
94
100
71
96
106
94
107
102
99
76
89
78
92
91
97
106
77
83
72
98
93
102
85
72
105
103
78
99
93
88
76
97
74
103
77
73
97
105
72
80
87
86
94
89
98
88
103
90
107
79
74
101
100
70
74
77
100
100
101
74
97
83
70
86
85
85
102
80
100
80
70
81
108
79
72
86
70
84
103
109
84
90
76
91
76
80
90
93
108
99
84
94
86
90
94
72
86
88
90
86
73
109
108
98
105
86
103
75
71
103
105
97
72
86
108
108
90
82
103
89
80
76
93
86
85
108
84
73
78
95
89
107
83
103
98
91
79
76
99
97
85
90
109
71
78
75
92
79
72
102
96
105
81
103
87
107
93
74
72
79
84
90
99
87
104
71
88
84
93
104
101
71
105
76
75
87
94
103
99
109
70
91
93
93
79
85
82
86
71
82
83
82
81
98
88
90
72
108
94
108
76
82
99
79
75
109
107
81
90
100
89
94
99
74
70
92
97
70
101
109
106
78
91
76
101
94
73
99
92
86
76
109
99
90
102
88
82
78
102
101
103
81
94
98
88
89
75
71
72
96
74
105
79
102
97
100
79
87
84
84
76
109
82
93
91
81
87
73
71
94
82
90
80
79
81
89
77
91
76
78
83
109
80
81
86
81
70
73
71
99
99
83
95
106
88
101
108
78
84
91
97
102
97
97
99
85
76
90
105
85
73
81
107
100
87
79
102
71
88
92
94
76
92
105
78
92
94
109
77
97
95
86
73
92
105
90
72
99
87
79
100
81
83
88
79
94
79
105
104
96
97
109
84
98
105
77
81
84
100
108
94
83
102
89
71
82
108
77
88
105
80
94
72
78
72
99
88
73
88
80
75
101
87
76
72
83
96
73
78
104
99
108
105
91
107
102
90
88
96
106
107
104
80
80
90
108
89
73
85
71
83
92
88
92
108
104
75
105
99
99
80
82
73
75
83
105
101
107
75
92
87
72
72
71
79
76
77
84
103
99
95
80
94
93
78
80
95
99
101
91
73
108
101
106
88
82
103
85
76
89
73
88
104
88
103
103
109
100
102
101
88
97
70
91
74
82
94
78
95
83
85
90
98
108
102
94
70
89
74
88
95
88
93
83
90
91
98
102
99
78
72
95
86
91
73
104
104
100
88
80
94
73
83
85
78
91
82
88
77
104
71
106
96
88
70
78
71
70
87
70
71
92
97
107
72
96
73
79
70
107
99
77
107
101
96
100
109
89
82
72
99
70
100
105
94
104
85
104
94
76
94
95
99
76
89
80
101
106
101
89
70
87
96
70
102
102
84
71
95
101
101
92
98
76
73
95
89
98
89
105
79
76
104
103
101
102
97
70
103
71
86
109
94
80
86
82
71
94
102
71
92
88
84
78
97
75
88
91
81
76
83
81
90
93
100
80
79
108
105
86
85
104
83
91
72
78
78
89
94
107
79
83
108
74
102
85
88
88
70
85
71
71
107
81
95
88
99
97
88
76
96
78
71
85
93
84
91
72
103
83
75
70
86
92
103
91
84
106
79
78
109
78
73
99
104
72
87
109
85
75
79
104
103
105
93
70
100
102
86
87
74
97
86
71
92
96
85
83
102
100
70
108
109
85
72
95
75
87
104
100
73
109
102
102
109
108
71
106
79
84
83
91
87
74
80
101
89
89
71
81
75
99
93
97
86
99
85
93
83
108
107
100
96
79
84
79
91
81
77
98
95
99
73
84
101
95
87
90
100
95
99
79
107
87
76
102
71
86
78
91
89
105
97
103
97
74
105
90
105
87
87
102
91
109
88
74
92
78
101
76
85
81
91
107
72
97
107
83
88
104
84
74
108
86
104
99
93
108
77
105
94
78
93
78
108
73
96
108
109
97
80
92
78
87
77
86
88
104
74
96
90
89
72
90
93
105
105
81
92
80
72
74
98
87
95
90
97
96
81
107
104
104
81
90
84
105
83
103
75
109
106
93
85
71
73
82
99
76
85
73
85
75
74
78
94
73
70
74
91
72
83
80
84
81
73
86
98
71
83
88
74
94
105
81
96
92
94
100
72
79
83
107
88
71
91
93
82
101
80
101
97
84
102
96
82
86
95
88
102
106
95
71
92
109
88
101
92
79
81
70
89
72
74
86
70
107
108
87
101
105
95
100
76
97
91
94
90
70
90
95
96
90
94
101
98
106
96
90
88
89
81
73
72
105
84
83
79
95
75
75
88
79
81
103
84
73
80
89
99
74
92
84
97
85
104
90
76
107
87
101
93
105
102
101
109
90
88
74
98
84
73
99
107
95
88
94
88
75
86
104
77
97
100
87
80
101
93
78
105
90
71
73
82
79
96
98
87
97
86
83
72
97
103
85
101
95
106
72
73
87
86
108
89
75
74
72
87
97
85
97
74
103
95
109
72
108
95
79
103
88
70
94
89
70
91
74
78
89
73
103
94
78
78
85
71
81
86
78
83
106
96
106
70
88
70
96
79
102
91
86
93
102
96
90
84
84
71
82
103
108
100
81
96
79
80
83
102
105
96
107
71
102
70
98
94
79
102
91
102
96
100
93
80
84
84
89
97
90
89
108
72
105
83
103
70
74
83
109
87
102
96
77
88
104
87
105
90
107
94
78
94
71
98
85
80
96
74
105
81
80
75
106
96
71
109
105
89
88
70
109
73
93
78
101
81
85
83
71
105
109
70
97
70
77
77
70
86
100
74
75
76
87
108
82
80
78
100
87
105
71
75
73
85
96
106
107
96
95
82
76
91
100
70
75
87
73
93
87
98
96
92
95
89
78
92
77
103
95
95
104
77
98
105
74
107
94
109
71
101
85
77
103
97
96
94
78
96
75
99
98
99
99
89
100
89
85
75
83
70
80
78
93
94
70
96
96
82
79
101
80
73
71
98
97
91
105
70
104
106
100
109
93
90
85
103
108
75
84
97
100
109
107
82
86
83
109
96
82
90
76
75
87
84
86
83
91
80
80
70
74
77
107
85
73
87
86
79
77
80
76
102
79
107
96
73
107
85
102
89
106
76
84
80
77
93
97
78
106
89
76
70
92
80
104
97
102
81
103
82
80
95
92
98
109
104
78
76
108
91
74
83
102
80
87
98
87
109
72
93
81
101
78
87
101
75
92
99
108
96
71
94
101
105
77
93
79
77
101
91
97
102
72
102
95
77
86
75
96
75
100
86
87
85
100
71
79
95
94
74
74
93
70
85
83
94
86
71
82
90
93
79
73
109
96
74
109
100
72
106
95
104
84
83
91
81
80
79
104
76
94
109
81
104
93
86
108
77
79
80
97
102
95
102
85
97
74
104
88
93
101
86
107
99
72
83
86
72
98
104
89
82
93
78
97
104
98
72
102
79
72
81
75
106
74
90
85
106
103
70
87
87
102
105
85
77
72
102
88
98
80
72
90
79
97
76
90
86
88
109
74
107
98
72
79
93
86
73
81
71
102
101
76
82
74
106
93
94
109
76
73
73
100
105
91
86
77
79
76
97
108
100
104
98
84
86
70
96
84
93
96
73
79
70
77
87
89
97
107
85
95
85
96
90
70
98
91
77
102
71
95
82
104
109
104
91
94
100
96
91
107
93
108
87
91
87
107
94
75
94
103
91
108
97
87
96
108
74
91
84
70
84
106
88
99
72
89
103
73
72
77
101
75
96
91
98
89
82
101
86
73
89
72
87
70
104
108
80
72
107
84
77
76
86
78
108
94
101
93
94
84
108
101
103
92
88
94
97
105
85
109
96
74
82
71
90
92
106
88
85
89
92
100
101
73
109
91
70
96
92
106
95
79
87
79
88
95
100
101
77
100
98
89
91
71
89
108
75
70
71
75
93
80
93
99
102
99
89
105
93
73
109
97
107
91
96
108
81
84
108
104
102
97
96
75
96
102
70
87
99
85
103
77
80
76
78
99
88
84
99
87
98
105
73
97
97
95
105
84
73
89
104
94
107
96
95
105
87
90
98
104
73
88
99
109
80
77
95
98
83
76
105
103
92
89
70
92
105
99
97
71
105
88
80
104
77
73
103
99
103
96
83
86
70
104
89
100
106
107
88
89
78
73
77
79
108
72
85
88
109
71
104
85
88
88
92
78
91
77
96
75
80
106
90
91
74
99
83
82
88
103
97
88
89
85
101
80
81
70
87
71
83
100
86
94
87
97
92
80
78
107
98
72
76
71
88
93
84
83
103
79
90
96
107
79
85
96
91
74
84
92
82
71
91
89
99
89
86
92
81
94
93
108
77
89
96
79
99
93
109
71
103
75
80
86
100
102
90
96
109
85
101
89
104
72
102
79
103
95
108
88
105
80
81
87
81
103
103
99
77
98
100
96
106
86
89
90
77
92
103
79
101
72
91
101
103
108
76
101
98
72
90
94
93
77
97
108
70
98
102
74
109
86
74
101
71
103
101
83
95
99
101
109
90
92
94
89
97
89
108
99
109
92
95
100
70
78
94
99
76
89
104
76
90
95
86
102
88
103
109
82
104
81
83
104
75
74
104
76
77
73
87
73
86
90
92
84
90
107
80
101
92
102
91
97
94
95
105
76
92
102
105
101
74
94
106
106
106
103
94
70
83
90
84
104
78
108
88
94
83
100
86
73
84
103
103
106
104
84
75
70
99
108
96
86
91
76
97
98
102
70
107
71
91
85
100
103
70
88
84
104
80
72
73
95
86
85
101
86
96
70
91
84
109
72
75
100
109
74
81
81
95
94
85
80
93
105
94
78
84
103
104
84
96
81
72
72
88
88
93
86
102
95
106
70
98
84
97
80
95
71
74
70
101
70
84
104
89
104
91
78
106
72
91
97
93
93
100
107
100
96
78
73
90
109
71
93
82
78
75
97
72
84
75
97
72
71
81
80
95
104
91
94
103
93
86
104
70
101
108
72
80
109
81
87
92
82
99
72
77
103
88
71
106
89
101
90
96
105
92
71
103
106
109
102
82
77
104
104
83
105
89
96
102
70
109
96
108
84
109
80
75
87
89
99
84
86
79
98
94
92
84
77
81
102
89
78
85
103
106
73
92
73
75
106
93
100
75
77
98
108
94
107
85
85
70
108
102
98
74
88
72
104
73
106
77
108
96
103
103
100
99
75
97
108
73
94
93
103
107
109
87
81
78
91
81
75
102
82
80
87
93
76
71
108
109
87
99
84
74
81
80
92
76
95
82
83
83
76
93
103
84
97
89
101
100
104
104
79
82
93
106
99
105
87
100
97
101
75
100
93
95
106
88
86
84
92
87
102
107
93
103
92
102
87
97
94
88
96
83
82
89
78
76
71
78
72
77
71
92
70
102
72
77
108
95
76
76
75
104
77
86
80
82
85
99
105
80
85
107
93
72
84
76
76
71
83
99
103
84
94
88
105
107
101
103
78
77
100
76
99
93
104
71
94
71
75
96
79
92
106
93
103
81
93
82
71
97
94
104
85
103
94
73
107
105
108
83
81
98
95
75
108
79
103
76
102
84
94
72
95
87
109
109
84
101
100
76
96
83
74
86
105
88
86
88
92
90
77
73
83
94
109
106
102
108
73
85
80
98
94
96
107
87
109
108
94
83
83
97
70
86
109
93
83
78
72
77
93
93
71
75
94
81
78
96
74
94
95
83
92
105
83
107
90
86
100
90
77
109
96
90
106
104
72
84
92
105
82
95
101
81
76
70
90
100
90
78
79
107
97
70
83
89
109
79
93
75
104
70
103
106
84
87
74
83
83
92
91
105
93
103
76
80
90
77
94
109
72
75
93
77
79
101
100
107
107
108
107
102
74
96
102
90
103
95
72
101
102
101
96
109
104
108
107
81
105
101
74
85
105
72
77
106
104
73
103
109
94
92
92
103
98
97
73
77
88
75
99
88
88
78
99
79
101
87
96
92
99
73
102
77
85
109
94
76
102
89
77
81
94
100
89
94
87
81
89
99
97
106
108
107
74
103
77
102
90
104
70
105
103
79
83
83
84
105
80
82
95
86
85
93
107
78
104
107
99
87
84
84
96
77
74
86
101
105
85
107
80
86
74
104
76
87
71
97
77
100
83
100
92
71
79
107
76
106
100
94
76
100
109
80
70
92
93
96
71
92
76
108
71
105
70
105
99
82
109
102
98
104
96
89
77
85
108
106
83
96
82
87
99
95
81
95
91
86
86
107
96
79
80
98
95
98
73
100
92
104
106
74
73
106
102
75
90
80
99
90
102
86
76
102
88
89
98
90
102
107
107
102
106
83
84
109
88
81
107
82
87
88
72
76
107
109
102
73
106
103
76
90
102
79
105
75
74
74
95
79
105
76
103
105
107
88
77
102
73
101
85
97
75
75
70
102
96
71
71
91
78
106
71
100
99
97
81
71
91
73
72
103
82
97
79
100
100
77
101
91
99
103
86
98
90
72
85
87
104
96
105
98
86
107
77
103
84
85
109
104
97
86
78
91
98
73
93
88
109
74
107
70
70
78
87
86
82
104
108
103
98
81
76
76
106
71
109
83
75
82
92
72
109
107
96
105
89
93
104
83
78
88
87
85
74
75
102
107
92
99
99
94
96
74
97
82
90
97
96
88
102
88
94
77
103
101
94
91
95
76
72
70
71
95
98
74
87
94
77
75
96
88
82
84
104
82
87
76
94
79
101
86
102
73
108
105
71
103
81
72
91
87
86
98
79
70
82
75
76
94
92
100
86
87
74
90
107
82
102
99
101
81
84
78
107
107
85
90
77
86
96
95
95
86
81
101
80
94
106
90
99
108
73
88
101
97
98
86
96
97
95
109
96
88
85
94
85
94
89
90
80
101
99
98
81
88
89
104
88
94
79
86
74
95
102
102
102
102
83
105
105
104
89
84
95
92
105
79
99
83
81
104
81
82
82
72
82
93
95
108
87
79
91
87
106
72
98
70
97
109
107
76
76
94
76
86
82
84
103
98
87
82
76
92
88
93
78
89
106
71
74
104
103
104
85
109
106
70
86
79
94
79
76
101
74
100
81
93
72
105
95
77
71
90
74
94
109
80
70
109
88
91
74
75
103
74
102
80
92
82
105
75
85
92
94
85
91
106
71
72
83
106
82
82
92
83
107
86
87
104
107
108
86
84
80
103
102
85
77
96
94
75
91
81
77
74
103
93
103
79
78
102
89
104
103
95
93
95
88
84
80
71
100
94
74
95
83
99
77
88
74
101
98
74
92
89
104
84
73
100
70
99
87
97
107
98
102
94
84
107
104
80
86
101
89
91
101
103
75
79
84
108
77
95
78
95
93
108
92
88
108
105
103
87
105
96
105
73
96
86
79
90
84
106
90
82
74
83
103
82
73
91
99
104
87
102
90
97
101
96
106
79
86
70
92
99
76
107
99
109
84
102
87
106
75
90
92
76
72
87
87
104
91
87
81
77
103
75
96
105
109
70
74
80
89
106
83
103
88
82
88
77
98
88
76
99
85
104
100
102
106
77
95
99
108
91
88
98
109
92
86
78
91
102
91
108
108
85
92
73
94
101
89
105
75
91
86
102
98
101
89
78
96
94
101
104
89
71
86
104
82
90
94
89
73
81
103
74
72
103
97
76
93
84
78
91
109
71
101
99
83
103
100
77
107
99
74
105
108
83
76
94
109
102
94
73
87
109
108
107
76
104
81
102
94
87
87
72
75
100
72
97
95
80
78
98
82
74
94
102
100
95
82
94
94
94
94
103
91
92
83
78
72
88
83
80
79
87
84
99
74
106
89
73
78
86
109
86
77
101
89
95
81
75
87
101
102
76
72
91
79
76
108
108
76
95
96
105
99
74
85
90
92
105
102
90
97
91
81
72
109
99
82
91
92
72
101
109
100
103
83
108
91
87
78
85
105
93
72
105
79
105
73
93
80
81
88
109
87
77
76
73
105
99
107
90
84
84
90
102
80
70
94
98
93
75
83
96
78
106
75
106
93
109
105
93
78
91
78
97
88
94
108
88
105
95
90
109
97
89
95
103
75
107
74
94
87
98
81
78
99
71
96
90
76
100
93
82
103
85
82
103
76
77
98
70
78
102
96
76
76
109
76
105
108
77
103
80
72
83
81
86
73
98
89
81
92
80
85
99
90
80
82
79
84
82
94
107
95
96
100
102
84
106
105
108
91
100
85
71
105
78
83
105
79
108
76
72
86
80
104
97
71
109
79
72
72
93
88
70
100
85
80
76
73
70
101
103
96
88
83
76
81
91
95
78
86
70
82
94
88
83
80
75
79
74
73
74
70
102
96
87
93
109
90
77
84
91
105
98
76
73
90
79
72
98
108
70
92
95
99
76
77
75
83
82
81
81
96
79
104
77
101
96
83
88
100
74
84
72
70
102
70
95
83
95
79
99
92
81
99
70
86
82
98
79
106
85
93
105
100
108
109
90
80
70
85
86
92
82
97
109
106
75
87
74
76
76
92
70
109
102
90
93
101
95
105
87
101
85
100
73
76
84
77
93
81
100
92
95
98
94
76
74
77
80
70
107
109
80
73
107
96
93
98
107
86
108
81
75
100
82
85
75
81
93
97
102
104
96
86
76
72
102
83
79
73
94
107
104
104
104
102
90
108
96
98
79
90
72
107
107
94
75
104
102
91
79
80
93
101
74
85
91
85
73
97
100
108
93
102
74
91
70
98
76
75
84
106
99
73
108
86
71
76
88
78
106
74
75
99
75
95
75
89
101
72
72
83
81
95
75
72
98
80
90
77
95
99
108
83
94
107
80
98
103
102
83
109
71
102
73
88
94
96
91
80
75
106
82
75
70
106
91
88
70
85
84
103
92
102
102
75
96
71
91
103
99
92
81
96
101
70
104
89
103
70
73
100
99
91
104
96
83
77
107
78
104
83
107
97
92
106
82
109
89
102
101
86
107
102
77
84
84
99
89
70
87
82
94
85
103
99
105
106
96
88
76
83
102
89
87
82
78
103
73
70
97
104
88
70
104
76
109
75
100
85
107
109
85
92
97
105
102
89
78
82
78
98
77
102
90
73
81
90
81
87
99
104
97
77
97
87
72
85
105
76
77
84
87
72
96
99
75
82
95
70
86
71
91
109
79
95
83
89
97
82
95
73
103
106
103
77
75
98
101
98
106
79
87
72
84
79
106
80
91
88
108
83
74
105
81
103
81
86
89
98
94
80
95
92
101
100
76
72
75
86
93
107
80
77
83
88
107
72
106
76
74
97
84
78
82
105
86
80
100
100
75
76
81
71
88
89
103
103
97
109
100
83
106
80
82
93
71
86
92
109
72
93
80
103
71
103
109
102
92
74
71
81
83
103
105
76
84
80
91
82
108
77
92
74
106
80
89
79
77
96
102
85
99
91
100
81
85
96
76
88
82
100
91
83
96
74
95
97
82
104
105
77
103
96
83
106
79
85
84
108
99
87
81
97
109
104
79
88
78
71
78
72
103
93
72
76
106
103
74
101
74
83
106
97
88
94
106
91
88
109
92
107
75
75
71
104
77
106
80
74
106
85
108
77
93
70
109
75
89
76
99
73
84
87
77
93
89
71
97
94
101
89
96
92
107
75
77
74
92
91
72
106
89
107
70
79
91
71
75
72
102
82
82
84
96
85
108
89
72
74
95
82
101
73
89
80
109
97
86
87
80
89
78
93
75
70
99
78
97
88
81
108
103
73
86
70
87
109
100
94
103
96
109
79
82
109
79
78
104
107
72
88
98
101
107
101
97
105
107
91
87
72
96
102
101
96
96
95
103
79
71
75
109
105
106
93
83
92
89
70
108
74
99
100
74
86
86
105
73
98
95
109
109
89
71
79
89
105
79
72
105
91
101
80
74
85
71
77
88
71
95
81
97
94
80
91
105
70
104
97
108
91
71
77
107
97
103
101
81
90
108
80
85
88
93
101
102
84
100
70
90
94
99
70
71
78
79
94
77
83
89
78
91
106
98
82
89
105
103
74
78
100
70
103
84
71
80
99
81
93
96
81
103
89
74
85
70
84
103
92
95
94
104
103
76
88
105
100
71
89
97
78
81
71
86
102
76
96
70
105
99
74
91
92
96
88
103
70
86
78
89
109
72
71
86
100
73
92
107
99
102
72
98
95
105
98
92
76
71
91
94
104
84
89
78
73
77
75
104
82
103
85
108
98
78
94
106
102
81
72
97
88
92
80
92
95
77
79
103
89
100
104
88
103
76
91
89
104
95
81
85
72
105
89
97
90
91
106
101
108
91
82
99
82
74
95
95
77
103
92
103
86
106
94
94
70
91
80
83
71
76
107
79
88
100
106
95
101
70
101
71
78
89
107
104
105
105
94
98
98
102
74
94
98
107
87
93
77
90
71
101
72
78
73
70
99
97
79
87
108
79
101
87
100
98
75
104
86
71
109
94
109
90
105
89
93
78
105
95
85
71
97
79
107
99
107
97
80
102
105
81
102
93
75
109
95
86
98
101
96
102
92
75
94
99
89
91
71
99
85
92
109
108
71
96
102
93
72
73
72
100
73
76
107
90
103
98
70
109
104
100
79
93
98
80
102
81
97
74
105
90
98
100
109
103
87
96
83
83
98
85
89
84
92
105
107
77
80
70
82
87
108
96
76
99
104
109
107
92
99
102
98
91
74
70
70
74
105
88
106
92
95
86
85
85
77
71
95
86
72
72
90
92
79
71
70
82
79
99
88
100
85
104
91
86
91
74
71
75
87
104
97
106
96
99
99
102
99
95
70
77
85
73
70
76
81
105
101
89
85
98
74
81
80
72
91
83
94
73
80
108
79
79
90
76
85
85
76
73
109
88
97
75
96
96
86
103
106
79
97
72
74
73
91
107
108
109
98
82
99
99
90
108
75
86
108
98
70
100
87
85
100
99
87
70
97
78
107
70
106
105
75
79
88
81
90
74
96
103
80
107
90
79
83
83
73
76
72
76
74
95
100
90
104
79
104
103
87
91
84
103
72
70
98
102
109
73
103
95
70
104
94
94
106
102
94
88
82
90
76
106
82
78
76
71
105
85
108
70
92
78
73
91
102
70
95
109
82
106
91
72
84
93
99
108
93
103
96
77
85
87
99
100
86
91
86
70
87
77
100
92
78
79
83
107
106
107
89
92
87
92
109
71
83
105
79
75
89
83
99
97
84
77
90
98
70
75
98
102
105
86
103
95
94
87
89
109
77
90
104
100
92
102
101
106
107
74
83
77
79
74
86
76
77
97
75
109
98
105
80
87
89
81
85
97
76
102
99
83
70
102
108
91
89
97
92
99
99
72
102
72
95
99
90
103
89
85
109
91
74
107
81
82
77
93
95
80
104
92
98
76
103
101
70
106
109
76
89
105
101
92
88
86
89
94
109
88
72
89
88
77
109
73
108
85
102
91
84
70
74
103
101
71
86
103
85
82
82
80
92
107
95
70
98
78
84
100
90
104
106
100
101
84
92
100
98
81
99
82
76
82
105
98
92
78
76
109
105
81
78
84
86
107
82
101
91
87
105
101
70
95
86
95
75
78
95
108
89
102
94
91
104
108
78
107
96
96
89
103
75
73
73
89
85
80
86
90
91
99
104
104
91
70
94
97
74
85
86
80
83
93
101
86
94
75
97
106
80
109
101
100
98
72
85
70
92
98
83
76
107
73
89
102
104
99
104
107
83
80
88
97
88
108
89
98
73
89
98
72
100
77
96
85
86
72
89
100
72
73
73
84
81
89
84
102
109
80
109
109
109
70
79
78
70
109
82
96
94
109
105
109
84
96
81
81
72
80
100
107
99
109
71
74
104
107
80
81
91
83
85
102
96
89
73
80
71
102
88
79
79
103
101
104
73
102
73
81
87
103
95
90
100
102
102
85
77
103
95
79
105
70
103
95
85
72
79
86
75
89
82
80
107
87
95
74
90
71
80
108
83
71
90
74
84
108
78
93
74
109
103
79
95
95
101
87
74
75
81
105
96
85
82
98
75
78
79
106
72
75
78
91
76
95
93
82
97
103
79
83
78
85
73
98
77
72
109
87
82
82
71
73
88
89
78
86
101
106
85
81
73
75
107
70
75
79
79
91
101
72
104
87
105
96
77
79
92
72
80
70
90
101
80
77
90
103
103
99
83
84
81
87
71
101
70
84
79
95
90
92
80
93
83
72
76
92
74
95
84
95
102
93
84
84
101
85
79
78
109
82
77
92
90
91
98
107
88
70
105
79
100
86
80
80
70
103
94
74
82
97
107
77
95
99
103
95
78
99
102
78
71
75
89
107
106
102
72
91
82
75
88
79
78
96
79
87
82
75
72
107
75
78
83
106
82
105
75
102
75
92
79
71
103
109
105
71
87
95
99
87
97
108
76
104
96
83
93
92
103
109
96
101
102
109
91
70
104
103
97
89
76
83
74
81
99
105
109
98
90
102
91
85
72
80
85
72
97
71
80
109
85
101
80
106
99
87
75
105
106
92
72
89
81
78
104
108
92
102
83
90
74
101
102
87
102
88
76
80
75
107
74
92
99
90
96
96
97
84
84
75
94
97
73
84
89
77
96
89
90
109
109
81
97
74
102
91
90
91
72
105
76
72
75
88
74
77
70
73
82
83
77
93
92
77
106
75
101
89
75
102
93
102
83
94
77
109
74
83
109
99
97
97
93
109
73
72
90
101
92
84
84
85
87
101
78
81
93
79
77
74
103
92
100
79
99
72
71
103
107
86
79
85
72
90
94
83
86
86
75
91
81
105
72
81
88
84
98
76
74
87
105
95
70
92
105
75
103
89
103
72
104
100
104
83
100
74
71
74
73
89
93
94
86
95
94
80
82
83
81
103
95
106
88
81
96
92
74
96
94
104
77
87
81
109
80
93
109
107
71
81
107
73
88
87
90
72
70
73
109
72
107
74
86
74
108
71
83
94
104
103
73
93
89
76
95
105
70
82
92
84
72
104
99
102
75
85
77
83
71
85
79
85
72
100
86
86
91
106
105
104
83
103
95
88
90
97
104
96
107
99
96
101
80
72
81
72
95
97
87
104
75
76
74
72
80
70
80
101
94
73
106
108
74
73
104
89
89
75
102
98
71
80
105
109
96
73
109
88
76
91
81
88
96
77
94
107
74
79
83
105
77
109
84
72
78
76
92
80
102
77
89
96
106
80
103
70
95
82
80
92
82
82
90
105
71
88
97
77
71
71
95
73
72
102
105
78
80
81
92
78
73
85
80
72
84
75
91
95
71
84
97
77
89
95
83
76
103
71
109
86
96
80
109
109
70
83
104
93
70
72
79
105
98
75
99
107
108
106
76
80
70
94
88
83
88
97
98
97
74
79
73
101
74
72
91
101
96
108
74
93
72
88
109
98
96
80
98
106
91
101
107
97
101
97
78
95
80
89
97
105
94
83
86
84
80
79
76
106
102
83
86
78
72
105
87
74
93
100
86
83
105
107
87
99
76
77
98
95
97
102
88
106
77
89
91
106
73
70
77
98
80
85
76
88
101
84
76
95
95
86
94
80
78
77
88
108
107
81
76
93
99
73
93
102
85
89
96
71
84
85
96
86
78
109
92
75
102
81
101
99
79
79
82
87
90
90
78
109
98
86
85
103
102
90
98
91
78
92
101
92
106
107
100
86
88
105
79
71
92
103
80
108
77
86
99
82
77
107
98
103
104
75
92
87
81
96
103
75
74
90
99
103
83
105
97
91
101
81
76
76
95
71
79
108
72
108
80
104
94
96
91
104
71
72
97
84
94
91
98
100
72
74
81
105
103
102
72
99
86
78
92
99
86
97
81
106
105
88
81
104
86
72
81
105
109
95
77
78
91
108
77
80
87
84
80
106
93
107
96
80
107
72
77
106
99
84
87
101
97
75
102
100
77
92
101
75
99
78
103
101
97
91
95
102
104
106
70
75
103
87
89
80
108
78
73
90
92
72
72
103
94
85
72
99
107
75
86
101
72
109
79
72
103
71
97
86
107
105
101
106
107
99
100
85
104
105
88
100
90
70
84
95
104
109
102
85
95
109
108
102
86
93
101
73
95
81
98
72
79
84
77
73
90
103
104
94
73
96
96
70
109
78
108
109
81
84
73
82
75
92
96
80
107
86
82
88
103
81
90
108
78
97
76
78
108
98
93
74
101
84
91
74
93
95
102
81
103
89
80
98
109
86
97
90
80
79
109
83
96
102
98
74
94
80
100
83
88
76
99
91
85
84
97
79
106
74
100
75
100
77
83
77
94
91
79
92
93
104
103
83
106
80
72
98
88
74
84
95
72
95
83
80
89
105
96
108
107
94
78
83
94
87
90
92
78
108
98
86
74
75
86
88
109
97
86
100
92
79
77
89
82
80
93
105
73
83
74
99
97
108
99
82
94
80
70
93
101
81
83
87
86
102
85
98
89
86
100
88
106
102
78
83
103
74
79
102
92
73
70
83
76
92
99
86
91
95
94
89
106
81
89
106
83
73
97
74
101
105
89
71
82
96
79
108
71
75
75
87
107
75
109
100
100
77
94
72
71
109
106
89
86
92
93
92
87
77
76
78
82
90
109
79
99
92
89
108
81
75
104
92
102
91
78
78
105
95
109
81
80
90
75
75
97
100
86
70
99
73
85
88
88
105
80
106
86
91
83
99
71
91
102
93
101
94
89
89
74
99
95
95
95
101
80
97
99
78
108
80
79
86
108
86
95
93
83
86
107
85
85
81
95
83
94
99
88
103
86
101
104
81
108
84
76
79
105
89
100
85
79
90
82
84
82
82
71
94
109
85
90
81
79
70
82
98
87
76
103
100
86
82
108
96
101
94
87
87
103
85
99
71
104
77
70
82
101
74
79
101
102
109
107
79
82
90
80
81
90
105
105
93
104
104
107
105
73
79
71
78
97
76
98
92
94
87
73
81
72
104
73
106
95
88
101
88
93
102
73
87
93
99
87
75
77
95
80
76
72
78
70
83
103
85
95
101
105
74
108
96
80
107
75
76
78
101
74
92
96
80
93
101
74
88
105
78
107
104
74
104
83
106
90
95
82
106
91
106
98
76
79
80
87
91
86
92
94
83
104
98
76
81
83
98
97
90
71
93
92
89
88
93
97
109
84
106
73
98
70
90
72
87
82
105
100
88
81
89
108
84
80
99
72
82
76
95
104
72
104
81
104
84
75
92
90
94
76
91
84
85
95
70
91
73
100
106
80
90
102
76
106
103
81
103
84
89
88
91
89
89
78
81
101
79
75
101
86
77
81
99
99
91
96
109
84
100
87
107
74
97
107
76
71
84
109
77
89
96
79
80
107
103
103
94
85
100
72
103
94
90
77
89
103
92
79
88
89
95
89
85
98
101
105
98
92
107
82
85
102
93
97
75
87
105
108
87
104
81
105
83
89
85
94
78
95
96
109
70
101
98
91
88
80
102
96
102
88
108
73
80
91
82
93
102
100
87
109
85
76
72
96
80
72
94
101
89
76
96
98
96
101
101
84
83
77
76
80
103
75
104
90
102
81
102
76
73
90
73
74
88
107
104
91
71
73
101
74
107
108
74
85
94
83
104
70
103
104
96
105
102
77
93
77
86
87
97
70
92
97
79
98
87
76
73
99
72
102
107
109
108
89
71
88
95
94
75
103
75
97
96
74
82
79
92
74
105
85
107
99
85
98
73
94
98
72
83
96
74
103
102
101
83
91
96
97
76
71
94
104
80
81
109
76
108
96
86
80
102
108
107
99
95
108
103
94
75
78
78
73
109
91
71
99
72
80
107
97
84
76
105
89
86
87
72
96
75
96
105
72
78
90
83
77
80
72
81
82
79
70
106
88
99
74
103
79
100
90
98
72
72
96
100
98
108
75
95
99
88
88
94
90
72
105
107
91
80
77
87
82
81
105
79
99
73
84
100
89
103
81
91
94
79
96
95
99
83
102
84
72
107
71
70
86
85
97
73
75
89
75
98
78
103
85
109
75
74
90
88
97
80
107
104
90
98
86
99
91
106
103
70
93
75
77
88
76
77
73
94
78
104
82
96
93
73
76
76
88
75
90
82
103
72
90
72
102
73
89
78
84
89
94
92
100
80
107
107
99
79
81
82
107
72
83
98
72
80
102
100
106
79
103
97
90
95
101
90
80
83
73
82
100
90
92
104
99
84
96
81
92
76
97
85
108
86
77
105
71
92
74
78
80
108
78
95
83
84
85
104
73
104
95
93
84
75
96
89
107
84
76
97
87
107
74
72
103
109
88
76
106
76
96
88
100
90
81
75
98
103
105
73
81
81
106
97
91
100
74
95
76
99
103
83
100
101
83
97
86
75
93
98
80
96
72
83
100
98
79
77
95
89
105
109
79
78
90
85
99
70
90
74
101
95
74
71
75
89
92
74
79
80
75
101
91
98
99
88
105
108
89
77
82
74
86
108
93
70
96
104
90
81
97
90
95
96
100
101
76
96
70
105
98
93
90
84
105
96
80
102
74
71
78
99
82
89
102
94
89
90
82
92
105
76
94
79
83
79
94
85
78
82
88
80
105
98
98
86
107
82
79
76
73
100
78
87
104
79
83
107
108
98
83
80
80
95
98
97
87
100
79
71
90
78
82
86
98
86
100
85
105
89
80
84
108
74
105
105
108
91
93
84
70
93
72
108
79
84
84
105
75
86
87
83
72
85
77
74
71
82
71
88
107
77
76
101
109
106
96
105
86
86
99
79
70
99
99
88
101
88
108
77
89
93
86
89
96
94
96
86
86
85
108
79
80
77
107
70
82
92
82
88
70
72
93
109
102
109
75
84
84
102
90
70
79
91
77
82
73
105
99
73
72
80
90
98
89
105
107
89
75
103
96
76
99
88
83
95
84
99
81
104
106
100
87
77
95
101
99
108
85
88
94
83
92
83
81
90
86
74
78
109
106
91
104
102
79
70
102
107
105
108
107
92
104
82
98
88
79
102
88
72
106
97
90
100
76
85
105
109
79
80
107
106
77
90
92
87
88
92
93
83
85
97
83
80
70
97
107
105
71
92
85
79
73
76
70
100
78
94
83
84
84
99
99
88
94
97
108
101
71
71
96
93
72
89
89
85
107
97
107
70
105
87
105
95
106
74
75
107
83
95
94
103
93
74
108
104
107
75
70
82
99
82
72
107
97
109
92
73
89
97
97
97
84
96
84
74
100
99
104
89
83
88
82
95
73
101
96
80
85
70
92
101
86
74
84
108
98
77
108
101
94
106
77
105
95
103
79
71
97
78
85
79
102
104
88
74
73
85
95
73
99
106
77
77
78
82
108
95
105
80
89
82
83
91
79
86
75
91
89
77
103
108
74
91
99
80
95
82
77
98
80
83
71
88
82
100
84
88
72
86
71
87
100
78
72
77
72
103
104
85
74
94
87
84
96
70
100
80
103
93
93
99
75
87
79
103
82
81
104
108
89
88
83
89
76
99
77
96
104
94
70
100
91
81
81
71
86
105
87
103
81
85
80
72
72
107
92
73
77
108
98
96
86
77
103
102
97
72
105
75
85
106
92
73
74
102
101
84
100
74
85
93
100
97
72
107
88
97
78
83
76
109
82
97
80
85
105
72
91
100
70
86
81
107
108
108
98
85
98
76
99
107
86
99
80
96
107
90
74
79
93
95
93
84
79
89
78
80
99
109
99
97
90
106
99
97
76
84
80
70
74
87
82
74
105
73
78
76
90
109
102
103
81
77
107
73
98
80
88
78
107
93
97
86
78
95
99
77
77
89
94
73
107
108
105
73
88
102
85
76
109
93
100
104
73
109
107
84
83
94
102
80
90
89
83
83
97
76
106
93
102
100
91
70
70
99
105
95
89
83
85
104
100
89
77
81
102
109
95
85
90
106
81
84
103
73
91
88
109
98
103
106
89
109
87
70
82
101
72
100
93
103
78
72
102
99
89
76
72
72
86
109
95
100
96
107
76
76
80
85
96
72
91
77
93
107
83
79
105
90
81
104
76
91
81
92
100
88
102
80
95
92
80
98
106
77
83
78
95
82
75
90
91
95
100
92
97
71
70
82
73
106
97
75
94
87
109
100
79
90
94
109
75
98
78
85
98
109
107
75
81
85
90
103
86
87
76
88
78
96
97
80
76
91
106
77
82
98
75
96
76
97
88
75
75
73
71
79
80
99
71
84
90
74
79
109
89
71
75
82
76
103
74
79
88
104
75
102
97
84
81
105
102
101
85
98
88
105
99
94
108
96
95
87
106
100
90
98
100
87
95
81
82
76
99
81
77
87
93
86
108
102
106
109
76
100
83
106
82
108
99
84
70
107
76
78
72
73
74
95
102
89
82
92
98
86
91
76
93
96
102
101
88
80
83
101
93
97
109
108
89
96
86
104
85
101
93
96
93
97
71
93
73
90
99
101
98
94
107
74
95
101
96
107
88
97
102
82
90
98
88
86
85
109
92
89
90
77
98
76
106
93
89
74
107
101
107
75
83
99
98
74
98
75
107
105
75
106
90
106
91
72
70
73
94
92
78
81
78
108
84
92
85
85
97
80
109
80
73
94
77
78
104
76
95
77
70
93
96
83
71
87
72
74
78
94
83
101
83
79
103
82
98
71
94
72
94
93
102
91
85
78
72
102
70
96
70
88
81
104
88
83
102
104
97
80
88
75
77
71
91
75
85
102
100
101
103
95
88
107
96
71
80
107
83
84
83
77
79
79
76
91
75
98
85
100
101
76
77
106
84
106
86
93
98
80
82
102
94
89
71
81
73
84
104
77
104
71
103
101
105
104
96
100
89
89
79
109
101
84
108
105
88
88
101
77
108
90
101
82
77
95
108
70
82
81
72
84
77
88
74
80
77
91
99
109
106
72
81
82
97
80
101
82
88
70
95
83
109
81
84
89
98
96
79
108
99
78
109
72
99
103
93
108
76
105
72
93
101
102
93
91
81
73
97
91
70
71
77
71
107
88
104
84
93
93
70
90
100
85
73
81
106
91
87
74
91
74
92
107
75
100
90
88
93
94
102
86
72
73
109
89
95
77
103
73
72
86
99
104
84
91
83
71
97
101
97
82
85
109
81
89
100
97
89
81
100
97
71
82
71
84
106
89
96
88
99
81
82
90
109
78
77
99
75
75
106
108
89
84
89
107
70
102
104
86
81
78
79
95
97
87
107
81
97
104
80
106
100
93
90
98
101
84
109
75
74
83
91
89
89
81
86
75
76
82
71
106
74
87
79
82
70
109
107
104
92
100
109
83
88
83
105
93
73
106
85
107
71
73
93
75
89
87
93
78
106
77
88
86
100
76
97
82
109
100
81
88
98
79
104
90
81
109
87
84
83
105
109
92
106
107
88
83
87
104
70
76
104
71
109
74
72
93
104
71
87
100
75
106
107
71
81
104
95
89
91
94
99
87
92
86
76
75
99
73
85
98
73
76
102
96
108
77
77
107
99
95
91
93
82
85
104
94
80
108
80
105
103
108
79
77
92
96
108
88
88
76
107
95
102
78
101
72
102
80
83
84
97
101
81
87
70
106
96
98
84
95
70
84
89
70
98
108
91
83
82
105
101
84
95
70
92
99
76
72
99
90
91
81
83
79
89
75
71
96
99
77
71
88
104
74
98
99
89
106
74
70
71
88
91
74
83
94
85
99
84
70
106
100
100
99
105
94
108
95
100
80
73
86
87
96
79
98
74
99
102
97
89
82
81
92
74
70
78
89
87
109
107
91
100
85
102
105
91
97
97
100
94
106
91
77
93
103
106
94
105
71
79
79
96
86
83
101
82
103
89
70
99
74
107
104
82
94
74
90
105
96
96
91
70
77
81
90
81
84
81
77
103
103
103
70
86
107
98
75
106
94
83
109
88
82
92
75
90
103
71
88
106
77
98
106
82
105
81
109
74
72
92
79
99
82
83
77
101
81
88
102
84
107
108
86
88
99
108
86
92
79
85
106
87
102
70
75
98
88
93
78
90
98
100
100
94
89
109
76
91
87
84
70
86
109
76
105
97
104
101
80
98
95
93
103
88
83
100
93
104
71
76
85
103
75
96
93
72
100
100
74
89
102
95
91
81
108
108
102
76
95
103
88
99
94
78
105
101
85
109
95
98
73
86
98
98
82
89
72
73
106
97
97
86
85
103
101
101
106
107
93
97
81
104
96
70
101
80
87
78
75
72
83
105
76
100
77
91
80
86
94
73
107
83
104
76
109
94
93
81
76
90
87
88
101
90
103
76
75
91
73
90
79
77
96
77
104
109
102
90
108
79
103
79
104
82
103
89
109
100
105
79
84
96
98
73
76
108
93
77
89
88
79
74
78
92
78
70
102
98
78
70
80
84
84
109
73
78
86
70
78
87
83
109
90
77
103
83
109
71
98
72
102
86
98
71
98
94
109
84
102
89
75
88
89
86
91
105
93
96
102
91
72
73
89
76
102
97
103
79
89
90
78
95
91
78
96
102
91
74
109
102
103
84
95
104
73
84
70
92
85
87
109
96
90
106
101
108
79
85
72
85
71
85
97
104
80
86
98
74
89
73
94
102
98
83
88
102
96
86
83
93
81
84
108
101
92
72
85
101
77
104
84
93
88
72
91
92
108
88
96
90
98
82
80
106
94
92
72
90
93
93
76
102
79
101
99
105
72
85
83
94
73
82
81
87
76
108
92
75
88
92
107
85
73
85
99
99
92
97
109
100
73
87
96
85
106
84
99
70
83
105
94
72
75
99
97
90
106
72
100
109
91
80
105
100
100
98
71
104
107
90
97
75
84
87
71
107
80
81
90
74
88
82
101
83
82
92
75
103
99
84
76
82
94
94
92
95
108
74
93
91
84
109
107
88
93
98
88
80
98
106
82
94
93
106
106
95
103
77
95
94
86
97
106
73
88
78
106
94
80
92
107
82
95
76
107
107
92
106
93
76
87
73
98
97
74
104
108
108
97
92
92
95
108
102
95
107
98
86
77
81
96
88
99
102
99
86
89
100
106
94
77
87
96
86
81
109
104
77
91
90
89
91
92
90
92
108
76
88
92
96
92
71
78
71
99
71
72
92
77
99
71
103
104
80
84
71
73
72
71
104
79
88
94
89
102
87
87
89
95
72
93
100
70
73
72
72
93
93
96
77
87
103
106
76
102
80
92
70
97
107
86
105
104
103
89
103
106
77
109
71
90
90
109
80
93
103
78
75
95
88
73
97
71
81
76
85
96
79
79
74
105
70
101
88
95
103
90
75
80
109
85
77
76
88
102
94
96
97
89
97
107
87
83
104
93
97
108
98
108
109
78
100
104
97
70
70
82
80
72
80
81
87
87
76
77
80
85
109
87
71
88
105
104
75
79
99
89
79
83
100
75
90
81
75
72
83
70
90
90
73
76
91
83
107
85
107
100
83
109
102
98
104
85
75
70
84
84
89
83
99
81
90
93
77
71
71
81
70
104
84
95
92
77
70
79
96
84
74
83
81
76
103
73
85
85
87
93
74
83
82
76
108
77
84
107
104
80
88
105
104
90
109
90
79
108
88
70
72
95
82
97
82
74
75
92
71
90
86
100
85
100
87
82
100
79
107
107
105
94
79
81
82
84
84
97
83
104
81
78
81
84
89
102
109
104
71
107
99
76
95
85
84
102
71
87
97
73
102
95
81
71
91
81
76
103
89
94
88
90
106
97
100
91
98
82
92
102
93
79
100
91
75
88
80
82
106
89
100
72
109
77
87
91
77
73
109
75
101
87
86
90
82
93
97
77
74
77
85
99
92
78
81
109
105
83
73
87
97
98
100
103
97
95
109
83
107
82
87
103
87
78
76
79
97
92
79
90
83
72
105
96
100
105
73
93
89
103
103
70
83
72
107
107
81
108
81
86
87
106
104
84
95
106
91
73
72
84
96
97
84
73
71
92
86
73
93
89
107
108
90
102
80
77
87
87
85
92
76
77
73
75
73
105
94
75
108
98
70
71
106
106
101
89
81
88
97
92
85
90
96
75
73
104
105
104
97
105
102
102
94
72
79
91
74
95
75
97
92
95
99
84
78
103
71
105
101
91
77
92
97
95
71
82
86
100
101
97
73
97
90
92
87
86
83
108
107
109
70
107
94
91
87
75
92
70
81
87
84
70
83
96
89
104
72
74
95
97
108
96
95
96
108
101
95
96
85
92
91
92
79
75
105
84
91
100
76
71
91
84
102
81
82
71
84
71
76
100
85
96
86
76
83
70
89
81
77
93
83
85
100
92
79
89
76
106
70
87
109
83
78
97
99
99
82
99
91
81
74
86
96
80
100
71
108
74
99
80
106
70
95
78
92
76
85
99
96
94
97
84
97
73
97
77
83
76
92
91
102
105
98
90
71
82
109
81
75
77
105
91
78
98
88
71
92
101
98
74
77
104
91
107
94
75
76
87
93
102
94
87
109
77
109
87
100
101
90
88
105
95
99
80
89
98
103
104
99
86
100
102
83
95
84
84
93
86
72
105
99
94
83
95
96
85
82
77
109
90
106
77
107
78
106
80
75
102
91
97
99
96
70
103
82
91
84
71
85
108
76
74
91
87
104
99
102
74
73
91
107
96
93
96
92
85
109
91
99
85
92
98
82
74
93
70
105
94
84
109
72
109
88
74
109
79
87
75
104
108
74
91
102
96
99
90
75
74
93
82
74
88
82
91
82
85
91
105
81
101
99
100
76
104
108
105
107
102
79
95
103
98
86
100
101
90
85
81
103
102
104
83
81
86
94
84
81
81
71
90
106
75
89
101
91
70
81
87
84
93
81
87
80
109
84
86
82
93
106
86
73
104
72
104
109
96
103
93
103
85
89
95
108
70
79
105
75
95
94
84
71
84
83
75
102
92
109
73
99
90
106
74
73
104
93
71
97
101
86
94
102
105
74
106
71
78
84
70
93
90
76
88
101
106
95
92
72
96
72
101
105
104
78
92
103
80
109
98
92
78
89
72
92
95
88
73
82
92
72
78
88
79
98
99
86
71
77
72
93
73
85
91
76
72
93
91
106
78
90
72
77
91
82
97
99
100
78
86
79
80
92
96
102
96
104
101
106
101
107
104
102
78
76
73
76
81
103
105
76
98
99
73
101
107
97
91
97
83
81
80
92
73
103
76
101
90
94
95
88
82
91
93
83
79
86
80
80
108
101
85
107
93
89
76
76
102
84
100
71
105
91
95
74
80
97
105
78
95
109
71
90
86
101
94
92
78
74
89
105
81
101
87
72
71
107
99
98
94
101
102
84
97
99
91
88
76
107
105
97
79
100
70
102
106
79
82
105
104
80
74
87
71
106
78
106
95
81
101
94
104
108
80
106
81
74
108
80
70
91
83
102
90
75
109
101
101
75
107
73
96
81
93
90
95
105
108
75
77
75
106
90
79
87
89
71
73
95
74
80
78
100
71
108
87
75
91
95
97
72
88
109
83
76
88
74
72
100
96
74
83
98
82
92
96
72
99
84
99
82
101
105
83
107
85
92
86
107
103
75
107
71
104
85
84
89
77
103
107
90
82
86
70
93
78
109
86
70
101
105
84
83
109
99
109
98
85
79
104
99
83
91
85
71
101
81
89
89
75
104
79
76
83
80
81
93
108
85
79
74
71
78
87
75
82
78
101
72
103
82
85
108
94
93
87
96
70
81
106
83
105
78
109
88
89
96
106
73
77
100
83
75
97
82
105
89
85
106
99
109
84
80
84
85
103
98
88
107
91
84
88
95
73
89
76
72
109
109
81
97
97
81
92
89
107
95
109
109
84
78
86
106
106
80
94
70
96
82
105
70
76
99
75
70
74
97
109
108
79
89
95
77
73
77
95
108
93
83
105
72
96
99
71
86
82
105
106
71
88
101
106
100
82
103
82
94
92
70
72
74
80
106
108
86
107
96
70
101
79
95
85
105
74
97
101
74
85
76
81
89
103
98
98
74
99
93
78
90
103
79
84
100
94
73
71
107
89
98
73
83
73
99
82
72
96
88
97
76
89
89
83
83
101
74
81
106
88
88
78
79
91
78
90
106
91
94
81
108
106
99
88
71
108
86
72
78
108
88
107
86
80
72
87
78
82
93
73
91
97
71
91
79
88
81
73
82
85
73
89
82
77
83
90
87
94
74
94
90
109
104
106
95
73
73
93
80
95
83
87
93
87
97
109
81
70
104
106
94
102
89
104
99
108
105
79
101
104
93
77
100
90
106
87
80
99
99
78
100
82
92
70
97
96
87
75
93
86
101
77
78
93
88
93
90
70
78
72
73
107
72
108
109
77
108
89
80
96
80
82
71
100
88
75
94
102
81
101
92
70
71
89
104
90
84
89
100
107
82
77
97
93
91
76
84
109
71
73
87
71
94
96
99
102
78
81
76
79
79
101
85
103
93
78
102
108
102
92
83
74
109
77
87
96
70
84
105
74
90
94
86
104
102
105
71
86
79
102
108
101
73
104
72
98
88
93
79
77
94
101
94
93
86
97
99
83
72
101
92
108
87
89
92
91
71
76
99
102
83
74
101
87
102
81
78
77
80
102
108
84
75
85
102
91
79
80
75
77
107
79
70
91
108
73
97
88
83
90
88
108
106
86
71
108
79
109
86
74
77
72
100
97
103
99
74
101
86
83
89
80
85
73
78
95
75
103
85
103
88
91
93
98
100
82
74
94
92
87
88
96
94
92
103
100
80
72
74
73
92
81
84
75
79
92
77
96
73
91
81
96
95
86
106
102
72
93
79
108
109
93
85
70
101
105
109
86
103
99
70
104
105
99
93
70
80
71
106
95
89
92
92
91
96
76
95
90
103
104
94
94
106
71
108
94
104
80
87
85
108
93
79
106
92
73
75
81
82
99
85
90
106
75
95
88
83
92
101
77
105
106
109
108
90
78
109
103
80
97
76
90
71
109
84
72
95
98
102
108
75
87
78
90
99
103
96
71
88
71
100
79
86
100
102
78
70
106
105
73
77
83
100
85
79
100
101
96
96
95
86
103
77
92
102
96
78
97
89
89
78
100
82
88
78
86
88
92
103
90
70
84
86
94
96
103
109
106
83
91
88
95
76
106
86
74
108
82
105
104
82
108
70
76
81
72
80
71
91
102
98
103
71
96
93
107
103
78
97
70
85
98
79
83
71
102
86
96
104
74
76
93
97
98
104
94
104
79
70
87
72
77
82
72
73
109
88
82
89
100
83
81
75
100
77
74
104
105
95
86
99
94
89
72
80
97
84
99
80
109
102
87
78
95
70
94
102
91
80
106
95
87
83
106
94
104
81
101
109
76
103
70
76
104
103
96
71
91
74
83
71
90
81
79
78
77
93
73
77
74
101
76
72
89
105
106
77
96
93
91
72
88
96
101
91
71
93
93
76
103
73
109
103
78
70
78
94
104
96
80
78
107
79
104
92
81
108
104
96
83
71
101
89
83
88
102
72
75
76
104
105
76
90
98
104
74
95
109
80
70
87
91
74
92
93
93
100
103
93
101
96
97
96
75
78
95
88
86
92
99
92
97
101
100
85
73
72
108
82
76
76
89
98
84
88
78
97
91
71
82
84
81
83
97
88
84
81
74
95
72
103
89
109
79
97
70
74
91
73
102
81
98
88
88
97
104
96
98
89
99
101
84
97
75
100
109
102
97
73
86
71
82
71
76
94
107
92
82
81
103
91
70
90
79
94
74
99
106
75
102
102
85
94
100
76
100
104
76
84
81
79
90
86
84
78
84
88
109
94
72
82
94
108
86
77
100
85
89
89
95
96
108
87
80
83
106
92
75
105
95
88
85
90
77
101
80
75
106
100
76
87
96
100
104
94
108
84
89
86
92
75
82
95
106
86
85
75
78
98
105
70
92
107
85
106
105
92
99
86
100
88
104
88
98
104
76
105
106
77
85
104
107
73
81
105
82
81
91
71
96
94
77
79
76
93
96
80
109
75
79
72
75
92
107
96
94
86
98
107
87
82
105
83
86
83
100
77
99
74
99
102
97
80
72
77
79
85
94
91
73
89
76
72
71
74
74
80
85
94
92
70
75
73
108
71
109
88
100
75
101
79
109
104
103
96
90
71
94
101
104
107
101
88
82
79
89
72
95
87
85
95
71
89
101
83
79
101
80
89
73
92
96
96
96
77
107
77
106
70
103
91
94
88
81
94
104
91
71
80
98
101
79
75
78
109
103
71
82
84
79
103
74
87
84
95
108
78
86
73
88
96
83
80
103
83
77
92
78
86
82
96
83
106
92
80
95
97
72
103
100
85
106
87
104
108
105
75
74
106
70
106
93
95
91
100
84
91
90
82
85
80
91
105
105
71
90
71
90
77
72
97
109
71
73
92
74
83
79
99
106
73
101
89
105
75
86
79
84
72
78
103
109
71
73
82
76
75
99
72
96
73
88
94
78
106
85
77
73
85
102
104
91
92
97
93
107
106
75
96
88
75
106
85
93
93
99
77
85
94
77
82
89
102
94
78
71
102
76
89
85
105
78
106
70
82
108
104
92
102
84
81
88
107
95
106
86
73
107
96
108
88
98
79
84
83
99
81
95
108
103
81
93
103
95
104
107
91
77
96
84
78
104
104
75
97
91
87
95
76
72
76
80
74
73
93
73
81
79
94
103
83
87
101
89
96
90
100
73
96
99
70
82
107
71
86
81
91
72
108
105
77
98
89
82
100
82
93
98
78
91
95
71
99
83
109
107
99
101
76
88
87
104
90
86
76
81
99
108
83
84
89
99
84
89
87
89
100
76
87
84
76
109
82
77
101
106
105
104
105
74
89
73
107
107
84
97
73
101
70
73
104
97
109
94
74
93
93
70
92
97
75
106
75
95
80
76
88
86
72
75
96
87
75
76
105
108
84
83
106
102
105
107
75
94
82
90
85
70
85
88
107
96
96
106
97
87
105
106
100
102
91
73
106
78
82
104
107
83
105
91
104
73
82
95
91
107
78
78
88
108
93
72
98
105
104
76
72
79
108
88
73
105
90
109
78
109
94
86
80
72
93
106
90
79
74
96
80
79
98
83
72
79
94
102
79
101
73
97
80
93
107
101
80
89
77
101
101
94
102
85
73
107
94
95
81
104
105
84
75
108
85
80
71
87
80
73
93
106
100
81
79
83
76
82
104
77
108
81
70
96
99
78
76
93
92
83
75
92
94
83
75
81
73
78
92
109
90
98
97
73
73
83
79
88
80
86
106
93
70
98
73
99
85
89
107
108
97
102
107
92
99
71
88
86
100
100
71
79
86
104
77
98
95
104
95
76
103
74
101
89
84
96
79
94
100
101
86
105
84
95
78
102
78
85
82
75
104
99
89
94
106
84
80
94
95
79
80
95
73
93
105
90
103
106
79
75
80
74
92
109
108
94
86
83
88
79
90
81
107
99
105
107
95
109
106
83
90
97
89
97
85
96
102
70
108
81
73
89
104
82
109
78
106
101
90
108
73
109
87
86
109
83
71
108
101
92
108
99
86
102
74
74
76
99
101
86
78
92
85
81
101
74
73
86
70
73
106
80
73
87
89
75
96
107
108
107
107
97
93
108
92
77
107
82
95
109
85
106
84
100
92
81
71
101
104
75
104
93
78
102
87
108
97
96
74
76
71
103
75
75
77
88
75
78
101
105
84
103
94
83
109
97
93
106
86
96
75
103
87
87
103
104
109
76
86
78
77
86
104
79
99
82
101
77
85
106
71
104
83
72
89
87
82
106
97
92
90
94
82
105
109
79
77
93
73
104
96
91
79
97
96
101
108
96
92
85
80
73
81
85
102
97
109
72
83
79
102
79
91
77
99
80
96
70
70
109
84
72
72
105
105
75
77
72
70
106
82
95
77
90
108
97
75
97
74
100
80
90
94
76
72
101
80
70
89
91
100
72
77
107
101
87
98
87
82
80
73
107
95
91
108
94
79
109
83
105
73
93
89
96
97
73
90
71
80
106
87
80
78
86
70
106
71
76
100
107
76
77
84
73
92
97
101
109
74
87
86
73
81
74
85
84
77
72
73
83
92
100
100
106
85
95
101
100
95
74
101
79
93
87
105
100
80
81
87
78
94
81
108
72
82
106
93
83
76
103
93
96
75
108
79
75
88
107
92
74
76
104
70
109
100
78
94
101
84
99
83
89
106
97
85
71
85
87
81
80
70
104
93
95
93
98
103
99
95
98
105
107
94
70
103
106
106
82
100
84
87
103
106
79
86
73
80
109
73
72
97
73
73
82
75
87
82
86
101
106
106
108
100
88
78
107
88
104
77
99
91
96
81
93
90
104
83
80
78
91
70
85
85
78
87
77
109
97
75
73
97
95
106
97
103
73
82
105
72
103
95
82
90
105
74
93
99
75
96
78
95
88
100
102
76
80
71
104
92
109
87
81
82
106
102
90
97
77
93
71
73
103
72
109
99
89
75
88
95
97
101
90
107
93
108
99
95
103
74
85
72
106
79
79
106
76
102
77
81
77
108
78
97
71
86
86
84
77
75
92
100
73
99
102
90
73
93
76
103
90
71
107
88
80
97
76
71
93
99
76
104
80
89
76
105
87
107
75
70
72
90
83
83
92
72
89
108
109
104
73
73
74
94
98
70
73
79
94
82
92
108
101
86
95
83
90
73
104
87
102
97
80
89
83
92
105
103
91
80
97
75
75
80
86
103
74
104
74
81
95
99
98
97
106
83
73
74
104
72
74
88
77
84
85
71
70
95
73
101
77
79
76
105
80
91
95
91
75
103
102
93
101
74
94
99
97
78
71
95
87
80
76
72
98
81
80
108
106
108
84
100
77
97
71
79
97
73
85
81
78
83
99
93
90
102
105
105
76
96
80
97
77
87
87
95
76
70
97
89
97
98
73
75
92
78
89
79
103
107
87
90
97
108
97
72
100
97
90
91
98
74
85
88
92
102
98
83
82
92
79
93
98
99
81
98
98
101
91
104
96
105
85
76
85
73
97
95
77
81
82
98
107
106
86
93
106
85
94
94
102
75
91
88
92
85
99
90
72
96
84
106
94
75
73
73
99
76
82
73
84
79
73
76
71
96
74
87
81
108
74
103
103
107
108
75
105
89
104
106
108
77
77
70
72
97
88
81
89
91
78
78
81
107
78
84
94
94
74
102
103
90
79
103
109
76
107
84
72
86
79
106
96
77
94
74
77
74
93
98
89
103
98
71
92
76
89
103
80
74
101
99
86
105
109
101
80
101
104
102
105
102
97
107
98
72
94
81
71
87
85
86
105
71
96
106
101
84
92
71
77
101
108
101
101
71
91
81
96
71
74
86
108
71
102
84
84
101
77
104
85
96
91
109
91
109
72
98
108
97
101
75
109
96
95
108
84
101
74
75
70
106
97
78
97
98
93
77
77
78
101
89
71
93
101
101
78
79
90
100
105
108
76
83
80
104
85
89
107
106
73
76
104
86
102
93
97
71
79
79
84
97
75
75
93
94
107
88
89
95
84
82
108
93
98
96
86
80
102
98
74
80
73
91
103
90
89
83
98
94
99
105
91
103
106
95
95
74
86
93
70
75
81
91
94
92
102
105
104
86
83
82
81
85
81
96
83
80
97
81
85
95
73
83
105
104
80
84
109
82
94
101
92
107
71
103
109
96
81
103
84
100
108
86
88
75
98
84
93
86
87
78
82
89
99
93
86
83
77
98
79
71
82
71
99
81
79
103
82
98
75
88
76
88
80
88
95
72
100
70
83
101
90
91
74
85
71
72
106
98
98
81
109
70
83
91
75
75
104
90
86
90
107
70
70
91
72
87
102
108
94
78
95
93
83
94
91
99
85
83
109
83
103
74
79
98
88
97
108
99
106
96
103
104
106
73
92
76
91
75
109
81
96
93
80
86
74
89
71
91
86
87
87
79
83
84
86
106
98
82
86
79
87
106
87
84
71
79
76
85
98
77
77
101
83
74
101
71
86
91
101
85
106
107
96
70
79
79
80
77
81
101
81
88
93
95
93
102
99
82
80
76
109
92
100
74
95
77
88
81
88
85
108
104
88
95
97
104
74
84
102
108
108
91
102
85
92
87
96
93
77
81
71
98
75
80
84
86
99
71
104
108
103
70
86
101
105
91
104
109
85
90
89
103
83
98
83
80
101
91
90
106
94
109
81
95
76
74
83
82
72
87
101
96
108
78
74
100
76
96
70
92
71
89
72
70
95
100
89
95
96
74
90
93
102
85
78
75
106
81
107
85
94
109
79
109
70
94
88
77
90
93
100
102
97
106
98
81
72
89
89
99
100
84
72
102
76
89
78
102
90
101
107
73
84
73
70
99
94
77
80
96
98
106
72
91
75
108
97
71
85
103
97
84
89
105
108
101
89
81
73
103
79
87
82
92
90
108
106
89
99
91
90
93
77
88
76
91
76
79
108
81
87
104
83
74
105
98
102
73
76
78
71
71
103
70
106
79
97
101
75
96
78
96
94
99
75
78
78
70
76
100
90
95
86
76
70
77
97
102
70
75
94
79
80
70
82
82
82
98
73
93
73
72
95
85
84
83
75
92
96
99
77
98
109
89
89
105
89
76
100
78
92
91
86
85
108
100
97
100
98
77
73
90
108
73
93
97
108
109
93
107
89
83
84
73
76
71
80
73
86
104
72
104
88
81
93
78
75
105
91
98
90
96
106
70
108
75
97
93
94
105
106
73
89
70
108
89
71
88
108
107
84
97
101
79
107
85
91
109
78
108
90
94
90
98
84
81
98
93
82
87
91
78
74
105
80
84
91
107
86
77
101
88
83
103
108
72
83
94
87
71
83
103
91
88
74
76
70
90
100
80
73
97
89
102
109
96
77
93
89
70
106
71
98
79
91
90
77
101
81
94
81
102
84
80
73
79
98
94
88
89
108
76
77
107
73
95
73
96
74
88
95
83
105
91
108
104
76
97
87
101
86
83
106
105
71
96
73
91
74
72
91
86
96
97
103
91
84
106
89
96
103
71
85
104
100
92
106
83
94
93
91
88
96
86
98
88
78
94
102
92
99
82
87
90
106
79
79
91
72
71
91
73
90
96
106
95
83
89
77
97
105
78
96
95
89
94
72
91
71
108
78
75
107
107
99
107
104
85
100
83
71
109
71
81
76
92
94
80
79
105
77
81
77
100
71
81
88
93
109
107
84
96
81
79
99
92
72
108
84
101
70
81
72
78
79
82
93
82
99
97
86
85
97
100
74
71
103
102
92
73
73
88
92
107
96
72
76
93
109
74
77
85
78
103
82
96
104
108
77
100
87
84
82
93
89
96
97
70
81
94
87
91
83
96
95
93
83
103
108
102
91
95
75
94
92
84
87
92
109
94
85
88
98
97
73
97
70
79
72
91
77
82
88
99
99
77
85
94
81
83
77
71
81
106
86
87
72
97
78
106
75
80
91
80
101
94
77
89
96
89
105
108
90
105
71
81
82
94
94
102
83
84
70
87
80
84
78
82
80
77
103
98
77
106
105
89
87
101
93
108
86
108
74
90
88
84
84
85
80
76
106
76
104
99
70
96
104
108
107
101
87
88
74
107
97
77
77
70
89
94
96
107
73
82
109
93
89
74
79
102
108
93
81
81
73
79
79
104
104
98
93
97
75
82
95
95
87
88
81
86
107
79
72
78
73
91
72
100
90
99
96
70
87
100
83
77
77
96
104
96
97
86
100
78
76
84
70
108
88
91
108
72
76
82
92
101
93
85
101
105
78
103
79
83
88
78
72
104
109
86
89
103
98
81
80
76
108
93
95
83
100
86
101
86
77
94
100
88
77
90
107
82
99
95
92
109
88
101
88
90
89
106
82
87
84
82
90
107
88
102
83
76
74
82
102
78
93
84
80
94
82
73
98
88
81
82
72
102
71
80
108
82
96
83
91
70
70
105
104
74
82
93
104
70
75
102
86
89
85
91
104
81
92
75
90
91
105
73
105
101
76
87
98
90
107
82
108
70
97
95
91
98
74
85
87
99
70
83
93
78
85
107
76
79
82
95
83
82
107
98
72
81
79
91
92
80
97
78
93
93
92
75
92
99
80
107
81
73
100
104
75
79
108
100
100
97
101
93
85
87
102
79
94
99
90
83
88
92
75
103
102
107
73
109
97
101
91
81
92
73
85
93
104
82
74
87
97
102
92
85
80
88
99
80
81
75
106
103
104
96
96
77
72
74
93
102
108
72
91
94
74
75
72
98
84
88
89
99
81
104
104
104
92
102
97
99
91
105
90
72
82
99
81
97
97
88
90
93
100
107
81
74
97
78
85
96
71
81
70
80
77
93
89
93
105
89
73
98
99
108
95
93
72
84
77
90
75
87
96
98
89
88
101
101
75
92
93
86
106
93
92
79
102
86
94
109
95
89
98
108
88
102
92
70
89
100
94
88
100
93
86
78
90
85
102
104
95
83
72
101
83
75
80
103
82
99
95
103
103
93
85
90
100
85
87
75
93
75
73
92
78
91
109
80
97
75
109
83
93
108
101
75
75
101
77
96
99
76
93
107
103
102
74
99
86
98
72
109
108
73
104
93
87
104
101
72
77
105
105
100
109
95
77
98
75
97
105
75
96
81
88
73
104
77
104
103
86
77
96
100
86
94
91
75
89
94
85
86
94
97
91
109
70
92
104
106
105
72
84
95
72
81
71
106
75
88
104
87
84
77
87
70
99
97
105
103
83
83
109
107
100
89
106
85
98
98
84
81
71
106
87
108
85
93
91
101
71
87
81
81
96
84
92
85
107
107
91
72
84
96
94
86
79
98
95
85
81
98
108
73
91
86
82
107
102
85
92
74
75
84
84
96
106
88
80
72
86
84
81
78
94
85
72
96
103
76
82
99
89
77
102
74
103
102
108
90
107
89
97
81
89
77
96
97
74
74
91
95
84
92
82
73
80
82
106
96
85
71
98
74
91
89
99
98
106
96
94
108
92
97
98
83
80
91
94
102
80
98
75
75
93
83
86
82
90
87
85
78
79
75
96
103
103
102
82
99
92
85
95
70
105
84
72
72
79
86
93
70
76
103
83
91
106
88
102
96
92
75
81
82
102
87
107
108
85
94
108
100
93
85
88
82
82
108
99
102
88
70
102
97
71
83
89
80
105
92
90
100
78
95
100
101
83
108
92
80
70
79
96
86
77
72
89
103
103
79
90
71
74
99
89
88
103
108
102
96
108
87
73
109
80
107
73
78
100
90
98
91
88
74
79
96
108
77
97
102
88
102
78
90
77
84
109
90
78
99
97
85
89
89
108
75
91
79
102
109
75
73
86
86
85
80
96
82
82
85
80
93
101
88
102
72
89
75
99
95
90
72
99
102
90
82
82
78
109
91
108
107
102
81
72
88
107
70
108
76
103
96
87
102
103
87
99
103
95
78
90
80
101
75
91
100
109
98
76
95
95
78
82
71
103
73
71
105
100
87
83
79
99
70
94
81
92
105
101
105
77
86
99
92
101
75
98
94
100
104
106
85
106
81
89
89
77
83
99
82
103
73
76
98
102
103
84
76
109
95
99
78
84
106
77
107
92
106
79
76
102
85
75
104
84
92
104
97
96
85
94
90
75
94
96
77
89
107
82
97
91
105
101
77
92
100
105
94
89
78
99
71
75
105
79
81
95
71
88
80
95
80
85
105
74
92
78
81
82
73
104
72
101
95
84
78
86
90
95
84
84
88
86
86
91
92
104
79
81
98
80
109
100
92
99
87
75
100
79
109
90
106
109
87
82
89
104
81
80
85
94
77
77
80
87
97
70
109
75
90
108
100
73
73
86
104
102
101
102
77
98
74
82
70
81
96
100
94
96
103
84
77
95
73
76
77
94
72
92
94
75
83
79
95
75
107
85
101
70
90
83
105
72
86
88
77
77
98
106
71
109
87
88
106
81
81
89
97
85
92
77
85
78
105
98
89
85
91
106
76
108
103
74
70
81
75
70
95
89
70
107
76
95
73
70
107
93
92
108
82
81
92
89
75
92
92
76
75
80
81
91
75
80
99
99
85
76
88
91
83
76
83
73
77
77
93
77
90
82
91
109
81
85
105
80
88
102
108
71
84
107
94
81
90
81
86
102
70
97
102
78
82
95
73
99
106
71
100
76
109
89
85
84
78
95
89
99
84
84
82
82
102
71
105
92
91
87
96
75
89
74
108
105
92
73
97
81
98
94
102
101
93
73
74
89
81
87
70
72
86
101
93
77
87
107
91
93
108
108
90
107
70
84
106
91
105
75
81
107
103
82
89
103
90
91
74
85
105
102
80
96
87
105
78
96
97
88
74
90
103
86
91
76
84
106
97
76
89
77
84
105
87
82
103
106
92
71
78
78
95
76
78
84
103
90
92
92
90
77
88
93
106
93
83
96
76
82
103
100
75
94
87
76
91
103
71
86
90
108
77
78
84
96
79
106
78
85
95
79
82
108
93
92
85
98
83
93
78
92
103
99
81
94
92
82
90
72
82
99
101
91
71
91
93
75
102
108
92
101
87
90
99
98
95
73
90
108
74
101
82
89
94
105
89
86
106
76
78
70
86
73
109
99
77
79
85
108
80
73
104
88
77
85
91
89
88
106
96
100
96
78
80
105
70
102
108
86
89
83
109
89
78
81
98
109
78
80
107
84
103
88
76
70
72
81
76
81
79
81
78
98
70
82
87
75
86
83
98
77
82
93
88
104
95
81
84
80
98
96
94
82
91
75
94
80
72
108
76
89
85
101
77
77
91
104
96
87
78
102
82
76
108
100
79
75
75
106
90
109
97
102
79
87
98
89
103
70
70
80
108
74
89
70
101
102
71
95
92
95
79
72
93
74
79
86
98
107
73
85
86
92
76
74
70
75
102
82
79
79
73
76
107
100
91
76
86
92
107
73
96
97
72
106
76
104
100
101
81
88
73
72
102
92
107
76
75
109
102
70
77
76
81
103
99
70
92
79
71
104
93
77
87
93
81
74
93
78
98
72
83
81
92
85
91
94
76
108
86
102
83
85
107
100
87
99
90
72
98
87
106
74
72
107
96
108
107
106
88
99
97
78
81
71
105
82
93
89
73
90
102
77
107
103
71
72
82
79
97
99
96
92
101
105
89
91
90
93
101
97
95
80
89
81
91
90
80
97
99
70
89
86
92
75
105
84
98
71
106
75
104
71
75
102
73
101
74
109
86
90
79
94
80
76
91
72
89
89
90
80
94
108
92
104
88
79
106
84
76
82
71
94
71
91
109
85
93
87
90
82
108
96
98
99
77
72
71
107
75
100
109
105
71
84
75
72
90
74
96
88
92
81
98
82
94
80
85
74
83
95
97
72
92
97
77
103
92
75
83
74
104
92
84
91
100
85
101
94
82
91
90
86
84
99
74
102
100
77
99
75
89
92
72
104
93
93
80
98
78
70
89
85
106
97
76
102
102
81
75
83
71
99
88
79
90
73
80
83
98
91
96
105
89
103
78
107
73
75
91
92
74
72
72
92
95
82
95
90
76
85
99
101
75
74
83
108
87
98
75
95
88
90
107
77
97
95
99
103
94
108
103
77
74
106
88
95
104
104
100
71
104
99
95
85
92
71
98
107
107
103
83
83
94
81
92
109
98
77
104
85
85
72
75
93
108
76
74
79
108
98
108
109
88
75
103
76
75
75
93
86
86
71
72
95
100
97
76
107
91
105
92
94
94
94
72
100
97
93
101
82
109
81
101
100
85
100
97
97
95
109
101
92
87
99
75
84
81
97
90
70
94
98
87
73
80
94
101
106
105
78
106
73
105
77
82
76
79
103
87
91
90
78
81
100
96
99
83
72
78
82
70
109
81
97
106
101
109
98
82
87
84
78
103
77
105
109
80
86
101
100
81
100
90
102
81
72
87
70
80
85
91
75
73
98
101
101
76
100
91
95
95
108
73
78
94
76
101
89
73
96
73
90
93
91
73
84
101
95
85
76
107
89
80
101
81
100
106
79
101
101
75
87
101
79
82
93
71
96
101
90
84
75
97
105
77
104
77
72
102
81
106
78
75
94
77
79
97
83
88
70
86
88
101
82
75
73
109
92
104
79
89
104
97
88
70
106
72
98
78
107
99
102
109
84
88
106
89
90
102
79
78
99
86
77
97
104
97
75
99
99
91
99
80
98
73
85
96
109
71
83
94
77
93
86
96
93
83
103
102
102
90
80
86
101
93
92
102
104
96
107
76
73
95
91
91
73
91
84
95
73
89
98
107
109
99
105
105
82
98
100
82
74
108
86
102
93
99
93
70
74
95
91
95
95
93
71
90
77
87
76
91
87
78
104
95
108
93
79
105
91
80
97
86
95
77
89
103
107
73
80
79
95
102
82
70
100
92
95
101
93
102
100
83
102
102
75
72
73
91
96
72
71
82
86
81
100
107
82
89
78
78
85
98
79
94
80
87
81
100
83
76
81
95
70
96
79
82
84
94
85
102
109
101
78
82
99
93
106
80
79
91
87
83
100
103
81
94
76
99
101
109
99
94
74
98
81
82
106
105
99
107
80
77
76
74
105
71
80
104
104
100
89
103
93
94
70
101
102
102
96
74
97
96
71
85
80
103
77
105
70
107
97
78
81
72
78
85
80
74
85
76
71
109
97
99
89
73
89
86
109
94
83
76
84
76
95
95
106
95
82
77
91
73
108
94
96
72
92
79
106
97
82
103
78
101
85
104
74
100
78
80
79
79
93
72
87
74
75
109
89
97
72
85
82
82
101
92
78
100
92
88
104
71
87
105
78
108
103
70
105
77
94
84
76
72
94
88
106
89
91
102
100
78
103
106
83
102
101
80
99
76
72
104
105
105
84
92
103
72
93
76
70
70
79
82
75
82
86
82
76
89
88
100
76
101
103
85
93
94
91
106
86
89
87
86
86
89
82
94
80
91
73
76
104
87
83
97
108
99
70
71
86
82
80
93
81
78
96
75
89
81
86
97
96
106
72
108
79
86
87
89
90
101
74
84
103
78
105
91
88
94
108
70
79
93
76
90
90
105
98
79
103
95
104
95
97
87
109
72
75
80
93
99
100
76
87
77
92
109
73
70
79
88
81
81
72
105
101
83
103
95
78
80
94
97
104
82
96
97
93
75
99
104
106
77
87
90
98
95
87
75
90
107
88
75
102
78
72
94
90
88
73
71
106
85
94
86
85
75
77
95
80
84
86
85
104
102
99
78
82
98
96
89
102
74
108
70
81
70
80
93
98
81
80
73
80
87
104
86
89
98
73
97
70
93
108
79
109
80
79
105
87
77
93
70
100
99
74
105
83
89
72
93
103
85
107
86
78
94
92
81
91
70
100
79
79
100
95
103
99
97
83
82
97
82
89
74
76
85
99
101
101
71
79
70
96
101
107
77
70
82
97
104
75
97
109
106
91
91
93
107
81
106
72
89
80
71
74
77
102
97
95
73
86
96
101
104
76
73
96
78
86
90
72
106
97
105
101
105
106
72
78
86
103
107
102
102
101
101
96
96
82
72
101
101
101
83
108
76
109
89
81
82
80
72
96
72
78
95
107
109
92
92
107
101
109
76
92
82
78
100
93
90
96
104
70
73
100
74
105
81
98
85
86
72
75
98
82
97
72
99
88
100
82
86
84
82
91
101
83
76
92
107
102
76
81
81
97
102
74
107
71
96
107
100
72
104
79
105
86
93
104
76
100
104
106
96
104
92
89
77
74
100
103
84
109
84
83
109
95
92
87
102
92
72
104
80
95
90
84
101
91
84
86
100
102
105
109
96
87
92
95
85
74
91
96
101
90
77
87
82
87
73
91
93
72
97
81
103
106
103
74
93
97
87
75
73
71
109
76
87
99
80
101
93
83
96
85
87
109
108
94
82
74
79
94
79
84
83
95
98
82
78
97
83
97
77
93
76
102
86
93
109
105
106
99
77
84
107
96
90
109
107
86
83
103
101
72
91
72
95
80
104
78
72
97
77
83
70
102
93
99
92
90
98
84
74
98
109
86
101
96
94
90
81
105
101
79
92
97
82
99
76
77
99
71
100
74
76
70
107
84
76
88
77
98
85
106
87
72
76
72
85
76
74
77
86
101
90
106
98
89
84
86
98
95
105
85
82
108
80
91
99
97
89
91
107
108
87
75
73
70
99
106
99
94
103
70
98
108
72
95
81
72
81
80
90
108
99
71
90
71
89
90
102
108
83
100
78
82
81
104
72
101
106
94
88
77
85
84
78
93
81
79
105
87
72
74
91
86
81
85
77
84
70
74
101
93
83
76
108
75
81
105
101
99
89
74
107
105
100
104
74
72
83
105
72
100
83
83
93
107
75
96
82
105
89
99
102
107
105
99
79
87
71
77
71
106
88
78
92
74
84
73
84
85
87
70
104
80
96
100
81
77
97
88
105
95
104
70
84
96
101
80
94
70
109
109
78
89
94
99
99
72
109
72
102
100
84
85
81
76
96
85
94
83
90
76
99
71
76
91
76
91
86
83
106
80
89
72
98
79
77
105
73
99
70
100
71
109
92
103
105
79
75
109
92
92
103
85
71
103
76
105
104
100
78
70
81
93
93
79
100
70
107
103
77
83
88
78
104
96
93
76
106
96
88
100
92
90
72
107
109
89
90
73
95
83
99
94
94
93
103
73
100
85
89
101
96
88
91
78
95
77
96
107
92
105
81
99
85
108
85
93
86
108
84
106
90
97
94
94
70
96
95
103
88
92
94
77
80
74
103
83
103
76
85
92
85
81
108
82
87
90
86
75
105
96
76
85
87
84
103
92
99
79
71
89
98
107
84
85
95
81
99
94
101
93
108
105
71
87
74
89
74
100
106
102
102
84
96
98
96
109
70
72
92
104
78
102
97
90
81
109
93
70
105
102
83
96
77
71
89
85
75
70
95
90
91
78
109
106
96
72
93
84
82
107
73
92
83
95
102
81
79
94
81
103
87
108
96
78
103
97
108
74
86
76
85
84
71
82
79
97
102
95
92
106
84
109
91
108
95
91
95
72
100
71
75
70
78
71
100
77
91
101
103
94
85
97
109
106
79
91
75
89
88
105
71
93
77
77
105
78
82
91
102
79
88
105
83
97
78
88
96
95
81
107
82
89
86
86
85
85
90
104
82
82
88
75
94
103
74
84
99
108
83
102
91
95
77
76
74
82
103
71
83
90
105
108
101
91
98
98
96
99
98
82
83
93
84
72
95
86
86
105
106
85
100
109
109
70
73
71
70
88
88
99
77
104
99
72
105
101
97
101
83
77
77
105
78
72
101
85
108
100
72
101
109
72
99
104
84
78
78
83
90
90
82
84
87
104
94
86
77
109
83
89
96
84
84
92
91
100
106
101
109
80
87
87
76
71
74
70
104
101
98
95
107
106
86
108
104
81
75
86
98
100
88
75
102
70
71
107
75
73
93
70
96
97
92
72
71
81
94
95
106
101
78
100
107
95
81
72
96
77
75
90
94
75
95
94
85
101
94
79
109
104
100
88
87
89
87
80
95
102
98
84
97
92
81
90
81
89
70
83
71
75
99
79
91
72
81
80
70
103
89
104
89
87
88
84
97
71
80
102
83
86
109
85
101
76
77
72
78
96
92
91
94
91
70
72
105
109
94
89
95
86
71
77
104
104
89
98
95
83
71
75
100
81
86
105
86
84
80
78
105
84
82
104
108
93
75
75
86
96
94
98
83
89
97
103
97
73
95
73
96
101
99
70
81
79
94
73
93
107
107
85
106
85
81
107
74
105
97
96
84
75
81
83
95
72
103
102
108
84
98
74
84
93
77
80
106
72
93
77
74
83
102
93
97
99
73
84
87
103
73
72
107
84
102
83
109
107
89
97
106
72
97
108
75
75
93
72
103
76
107
108
83
75
97
85
103
102
90
106
99
71
99
107
97
109
70
75
92
90
87
88
90
108
77
96
94
80
99
79
97
76
96
94
90
91
84
70
99
95
100
77
78
98
71
104
80
77
81
98
101
77
88
108
92
90
94
78
84
106
79
76
87
78
83
100
86
83
94
87
85
100
86
79
81
86
76
88
95
76
71
105
87
84
70
93
96
73
84
93
85
106
88
104
89
91
94
94
104
107
104
97
70
78
105
70
83
92
108
90
79
106
96
96
90
71
87
74
103
89
87
86
98
105
96
99
88
108
79
75
70
107
82
108
93
86
93
90
76
101
77
71
103
87
91
78
78
86
92
108
81
98
94
104
106
109
109
108
107
87
95
108
106
100
108
95
74
99
98
108
101
87
80
103
95
83
74
107
100
97
92
98
84
108
98
91
86
88
72
92
106
78
93
105
84
108
70
83
70
84
104
107
85
76
93
73
103
70
91
97
75
81
97
93
90
87
75
105
108
96
96
98
94
88
91
104
107
76
95
79
88
91
78
80
84
74
76
101
80
88
79
77
107
108
73
85
106
100
89
104
94
87
87
87
78
100
103
108
87
109
96
75
80
103
102
99
83
91
76
84
81
81
85
98
77
91
93
89
84
89
76
96
99
92
107
82
90
108
90
107
88
101
81
97
87
87
78
99
73
86
102
70
74
106
79
77
88
103
77
97
89
87
100
98
100
86
102
76
91
79
92
94
71
78
90
95
76
93
87
81
94
75
74
82
108
73
107
97
100
79
73
102
80
71
88
85
80
103
94
77
104
85
85
108
98
78
83
101
95
104
104
92
91
105
80
97
70
104
99
92
82
82
105
72
97
95
105
83
79
70
75
84
81
86
101
70
92
71
83
84
88
88
83
101
78
98
80
99
80
85
109
78
97
98
100
70
101
88
87
81
98
107
103
106
102
82
99
107
98
80
100
84
88
101
70
100
82
77
73
79
75
98
73
72
81
78
91
73
91
99
82
89
71
102
104
70
88
73
96
76
78
97
84
100
102
87
74
96
92
90
101
77
70
93
105
98
83
109
70
89
83
103
73
83
104
95
72
73
102
91
108
88
87
73
108
108
83
94
103
73
94
98
82
78
105
96
107
91
86
89
109
92
102
83
94
87
101
94
101
90
89
104
103
72
78
98
92
86
102
91
101
104
79
83
89
82
93
98
97
92
82
89
80
85
99
73
95
99
109
100
88
74
87
105
97
100
98
91
91
80
95
76
76
109
95
86
74
96
97
91
89
84
79
77
102
98
74
104
101
90
88
71
80
73
90
92
89
99
99
76
98
82
70
90
107
71
79
83
76
97
109
98
100
76
78
77
105
76
76
96
104
106
102
72
95
86
82
82
89
85
97
77
74
77
100
70
107
79
86
91
97
76
98
81
73
92
102
73
95
82
95
73
87
76
96
88
107
105
109
108
103
100
77
87
73
80
88
94
76
84
108
84
71
106
86
103
106
75
104
90
89
109
102
91
76
95
101
93
85
91
93
72
108
85
70
88
87
108
82
76
94
103
98
104
79
82
92
84
85
105
106
94
70
108
102
86
101
99
85
105
85
84
106
96
79
91
85
73
94
97
91
78
89
104
79
93
105
101
73
89
107
71
86
86
104
88
97
90
99
82
89
74
107
75
82
107
90
84
80
74
85
94
98
94
84
70
83
109
108
107
95
76
100
101
100
75
101
72
102
87
86
98
72
90
78
89
103
80
75
104
73
76
83
108
79
99
89
82
87
70
98
99
109
70
72
74
74
83
70
86
93
86
94
107
90
104
96
94
88
73
99
80
104
93
105
98
82
101
70
91
90
98
81
70
75
71
86
79
90
104
83
87
71
85
90
94
104
91
71
97
94
109
90
76
75
71
87
89
108
99
76
90
84
96
98
83
74
80
96
108
108
80
76
85
107
109
91
107
81
77
100
82
104
76
80
107
108
96
92
81
92
103
106
94
102
104
109
83
89
87
76
104
94
101
97
72
97
87
90
97
85
77
87
82
70
78
77
70
107
74
90
97
99
96
98
104
103
90
90
93
104
70
107
107
106
94
97
103
90
73
85
72
84
83
95
105
105
91
88
76
94
92
71
81
72
94
90
87
95
70
96
98
72
91
109
78
88
98
77
83
85
93
92
82
87
79
70
78
103
99
106
86
87
102
76
106
99
98
84
100
86
92
81
98
80
88
97
97
78
83
101
108
98
82
89
100
85
81
90
106
74
102
75
107
101
80
81
76
108
106
85
95
77
76
83
76
96
99
105
83
78
96
97
72
74
103
90
105
95
81
76
108
98
108
75
84
89
73
102
102
76
79
96
95
99
102
95
89
89
86
83
93
103
105
81
74
84
94
88
71
99
95
108
93
70
86
98
73
74
107
107
73
74
73
108
93
73
106
84
88
106
88
96
94
98
102
92
80
88
78
75
70
75
108
97
101
94
82
87
97
88
101
103
100
87
73
88
80
85
81
76
89
91
89
72
103
78
79
76
91
103
103
75
79
71
86
77
107
82
98
107
77
75
88
107
72
97
109
102
105
97
81
101
94
100
105
75
103
99
100
103
74
87
97
80
98
86
71
78
71
107
108
103
76
84
98
79
77
90
87
84
87
77
107
73
93
102
80
80
88
73
101
70
86
99
100
73
78
104
93
93
99
72
82
104
87
90
84
107
90
74
93
82
75
79
96
78
78
80
102
88
71
105
99
96
94
104
96
104
100
93
105
106
92
97
106
97
77
102
94
71
87
103
97
74
77
105
79
108
106
107
83
92
86
98
92
79
83
80
109
99
91
94
100
77
77
71
102
97
87
78
73
98
86
99
105
75
108
91
71
77
97
78
71
89
93
92
81
81
108
82
91
99
84
73
85
70
75
97
101
87
77
92
99
77
108
77
71
84
104
99
82
87
90
97
91
98
91
72
107
71
82
102
90
103
70
73
75
100
81
95
86
84
78
72
86
72
108
86
74
86
90
91
79
84
78
92
85
78
81
109
104
97
77
101
75
73
74
107
80
88
85
89
91
72
82
80
80
99
76
109
90
81
90
98
109
98
100
104
70
92
70
91
106
79
76
70
76
71
104
89
83
90
95
96
107
107
82
94
99
102
92
74
95
77
96
105
102
98
77
100
103
85
107
91
79
73
80
82
103
74
79
98
100
82
81
107
86
84
94
98
85
88
101
86
105
73
106
87
105
83
96
88
102
81
88
108
105
102
88
79
90
98
79
95
91
95
72
75
92
93
102
74
96
91
79
95
80
86
107
108
94
95
70
85
77
80
76
102
79
103
77
79
71
79
82
87
104
99
86
103
93
76
104
96
99
109
105
104
108
109
105
96
77
100
79
106
82
74
80
90
105
76
78
89
92
105
85
106
91
84
99
79
73
82
95
107
102
87
75
78
93
108
100
84
94
83
74
103
79
78
99
102
103
101
76
102
91
71
83
96
108
107
87
99
89
71
97
100
89
97
71
83
107
75
102
103
98
92
95
77
83
85
78
77
81
74
79
101
107
106
90
98
75
88
73
92
91
107
86
74
108
98
90
86
95
108
92
82
79
71
71
74
102
95
80
108
71
74
78
94
100
90
82
87
73
99
81
97
80
77
95
101
79
75
103
103
95
109
73
99
94
108
74
81
71
76
74
85
73
95
82
82
93
87
92
72
76
107
104
90
105
102
108
85
74
93
92
95
84
80
106
76
87
98
96
71
104
84
91
103
103
79
82
96
88
89
80
75
85
81
94
80
76
70
84
91
101
102
89
109
103
99
74
109
99
90
95
94
88
95
108
99
105
83
79
104
84
71
101
106
101
78
90
106
75
109
88
102
88
86
87
81
70
79
95
85
104
108
106
101
79
84
85
87
79
106
96
82
98
106
92
77
98
104
85
88
84
91
88
87
107
79
86
92
91
83
97
83
88
96
95
109
70
100
77
109
82
86
94
103
104
90
84
82
86
87
94
107
81
80
82
92
79
88
77
101
77
81
105
90
98
94
94
100
107
87
85
85
104
93
80
70
95
87
94
99
104
85
70
90
73
91
81
95
98
72
77
108
107
87
95
79
93
77
97
108
87
77
108
93
74
96
95
71
103
73
89
79
87
88
76
85
83
101
91
80
78
72
85
98
79
102
82
100
107
71
101
85
90
93
83
71
73
79
107
75
80
79
78
71
85
105
89
101
97
102
105
85
97
88
78
93
88
70
99
97
107
74
93
78
77
89
73
107
108
106
99
97
83
107
77
106
89
104
85
81
74
102
74
80
93
87
104
80
78
95
97
100
109
86
78
71
78
87
103
87
98
73
80
98
86
99
77
88
91
93
87
97
78
76
79
73
104
87
106
72
81
88
101
71
105
109
99
80
71
88
109
109
93
75
73
100
107
72
95
82
91
96
79
101
101
82
103
78
92
102
108
79
97
107
70
97
87
78
90
106
86
92
98
84
92
81
103
81
96
82
90
78
97
88
95
70
71
86
91
97
104
109
95
76
86
94
93
75
79
88
107
108
85
98
95
77
102
75
81
89
95
96
79
79
85
102
84
91
76
105
82
81
108
84
99
96
72
90
90
75
105
76
71
94
83
84
99
103
93
73
72
74
95
84
77
98
103
98
97
85
85
83
77
87
104
83
71
97
96
87
100
91
101
106
94
88
79
104
78
82
72
107
76
102
72
100
101
73
71
108
84
74
88
83
100
82
76
98
92
89
84
84
108
91
83
106
79
83
99
103
82
87
71
88
92
92
81
81
102
75
70
84
101
108
86
99
94
98
88
80
81
80
101
91
81
74
76
91
99
70
94
105
101
92
74
90
89
101
108
91
97
96
82
105
101
75
88
81
92
87
76
102
87
92
108
90
92
72
86
79
89
106
88
109
95
76
89
87
106
104
72
81
86
105
92
85
76
77
92
78
85
90
88
100
70
87
71
90
100
77
98
76
90
102
89
109
105
76
109
88
80
93
85
77
108
109
77
94
105
100
84
106
74
82
92
74
93
105
104
75
82
82
105
99
70
74
73
71
107
102
76
92
98
84
99
101
108
108
83
77
101
104
94
77
82
88
97
72
92
72
77
84
86
94
105
76
100
102
88
84
108
105
71
109
73
70
106
98
109
79
80
106
87
95
108
70
94
90
77
93
85
86
80
103
71
97
92
87
76
91
70
84
85
85
103
89
92
90
83
84
96
109
107
84
88
99
85
95
109
82
73
106
93
107
72
90
85
76
89
107
87
80
76
79
93
75
106
89
108
89
84
83
92
86
107
84
95
83
80
70
96
88
102
71
103
77
84
70
82
94
71
97
93
102
104
77
85
90
90
109
105
89
70
70
98
75
106
83
101
96
87
108
103
98
90
100
73
86
94
75
99
79
96
105
85
83
107
93
76
106
101
93
82
108
90
70
74
91
95
79
74
89
81
97
81
82
79
73
75
109
85
81
91
87
83
83
88
73
86
88
99
76
77
89
80
90
102
92
99
94
106
80
101
78
94
100
87
96
92
77
102
91
73
87
88
95
80
87
70
72
95
70
74
79
97
96
90
81
84
109
86
92
83
72
87
80
70
79
72
106
104
90
90
95
90
71
74
94
71
76
77
94
88
71
72
75
104
99
81
83
98
100
74
102
98
109
103
93
105
104
93
82
77
86
78
97
104
103
106
77
96
84
88
85
103
75
101
88
108
98
108
104
90
80
80
91
71
97
78
95
79
88
78
95
98
90
74
89
108
104
104
91
75
101
109
77
78
105
91
87
76
93
92
94
99
96
71
108
98
98
107
102
97
71
98
74
79
86
96
104
76
82
75
72
80
96
93
100
76
98
71
80
104
100
97
87
92
77
80
103
99
73
95
89
85
108
73
106
100
73
77
109
89
76
107
92
72
109
87
100
73
70
76
97
88
78
98
82
71
71
74
79
107
93
105
80
100
73
84
79
89
84
84
88
107
72
74
96
97
75
100
76
109
77
104
76
84
93
80
80
107
86
102
105
72
80
82
107
71
76
75
73
78
96
99
98
99
84
86
83
108
84
107
109
80
71
75
104
92
103
74
80
96
98
100
79
91
88
74
91
100
102
85
89
107
107
74
82
71
97
71
101
98
78
109
102
82
91
78
101
104
77
97
90
102
98
75
80
109
86
104
71
77
95
91
70
72
101
82
104
97
71
86
103
73
98
97
71
83
83
105
100
89
86
84
70
93
96
84
108
92
98
101
79
104
79
76
105
78
96
75
77
80
77
82
104
75
80
96
96
91
85
75
108
85
84
100
109
77
98
78
100
90
76
104
92
71
109
105
104
83
75
92
72
91
109
92
104
102
95
74
90
82
90
92
86
101
85
72
102
102
88
74
71
85
75
74
77
81
99
74
101
73
109
70
105
100
101
76
72
76
97
86
76
80
81
78
72
90
106
81
106
105
92
71
85
87
97
83
106
93
95
78
80
78
95
80
97
82
70
73
103
84
108
101
95
109
92
87
84
106
99
103
79
84
93
102
78
71
108
90
83
109
90
85
71
92
89
107
95
85
104
108
85
70
73
94
73
106
73
71
90
71
72
73
87
104
90
79
83
93
77
79
97
88
84
73
92
97
74
78
75
93
75
76
106
105
88
106
108
93
81
95
104
95
89
72
74
86
76
89
75
89
84
75
107
102
76
103
94
87
100
98
93
106
95
106
79
87
105
88
104
88
76
70
88
84
85
107
86
92
99
93
87
107
80
70
74
79
92
90
78
109
109
103
70
76
99
102
92
103
91
105
91
81
106
86
73
101
109
99
85
76
95
98
70
107
83
79
85
83
90
103
107
90
70
84
77
83
72
71
87
89
80
77
79
82
91
92
108
90
105
87
79
77
71
89
104
81
75
71
76
82
103
81
101
72
87
74
91
79
78
109
82
78
86
99
83
90
78
98
96
91
81
104
98
78
93
105
85
101
105
109
71
77
83
86
109
94
80
96
86
104
101
81
84
76
78
83
104
72
93
80
101
104
93
102
96
73
71
99
102
103
77
98
103
106
93
94
106
100
105
87
88
70
76
91
93
100
79
95
109
102
78
86
107
97
100
80
104
109
70
86
106
103
78
102
99
82
87
83
76
90
89
102
89
106
101
74
78
94
99
100
82
83
81
90
99
86
80
87
99
82
82
108
106
70
94
96
107
70
95
98
99
96
81
94
104
106
70
103
94
75
72
77
88
87
88
71
108
71
71
90
104
80
90
98
92
90
83
104
80
84
94
77
88
70
97
95
93
96
80
90
109
97
88
80
77
106
74
99
79
100
98
98
103
95
88
106
90
109
70
87
73
94
84
100
106
93
89
80
88
98
75
97
108
106
89
77
100
92
86
78
91
109
104
78
80
79
82
84
84
93
87
77
86
74
105
95
81
75
105
105
74
106
95
87
106
84
107
101
90
77
109
82
96
99
107
103
100
104
73
71
96
92
86
98
88
98
84
93
102
89
80
76
89
103
83
106
79
89
80
96
97
101
95
100
94
76
105
100
82
106
109
76
88
96
91
84
102
77
103
70
104
96
79
94
104
104
80
75
84
103
87
101
80
101
76
71
78
97
99
102
91
102
102
83
76
107
85
86
96
74
72
75
72
94
70
106
92
79
102
73
80
104
71
84
71
83
83
88
103
91
97
109
85
90
99
83
82
92
93
86
87
83
80
84
92
109
101
109
79
83
109
109
75
75
97
79
87
88
94
106
105
96
83
96
90
79
86
108
76
83
107
92
90
71
78
72
70
107
76
90
72
84
77
102
78
88
93
92
103
93
107
75
77
74
105
72
90
94
109
95
73
88
103
105
97
86
76
104
77
98
74
87
88
74
86
77
96
71
98
75
95
96
107
107
98
80
82
108
91
101
73
108
106
83
104
85
108
88
80
83
82
97
105
76
86
77
71
89
97
96
90
93
104
107
70
83
88
98
79
101
87
102
105
98
78
92
88
95
92
77
76
82
84
103
103
91
106
109
89
107
73
107
83
97
97
109
107
75
103
79
96
98
70
87
71
106
77
83
77
96
72
77
70
92
75
102
77
105
108
74
92
91
97
80
94
96
106
93
76
98
88
89
85
100
70
106
81
107
103
72
80
79
105
73
102
74
72
109
91
97
85
76
104
104
88
79
75
74
100
77
71
81
82
71
78
91
89
70
81
86
77
91
81
93
109
79
86
108
82
84
104
72
92
108
93
99
86
72
98
86
78
76
77
71
78
89
106
94
78
107
77
107
78
100
96
90
86
72
93
73
97
83
93
73
89
88
82
99
100
92
75
93
104
98
78
85
91
95
75
78
78
81
109
73
90
92
84
101
84
93
98
74
101
90
99
106
77
81
80
89
89
105
85
70
82
103
82
75
89
73
87
90
96
104
107
96
106
81
79
79
93
108
94
102
79
106
96
91
71
72
79
84
94
97
73
106
85
91
104
96
72
96
103
107
84
104
86
97
109
85
79
95
91
95
105
70
102
73
76
93
87
100
87
77
105
82
71
73
80
78
81
92
73
74
98
88
74
105
109
108
107
86
93
77
86
84
83
97
82
96
73
72
86
84
72
100
108
94
79
98
76
96
101
104
91
104
90
106
75
107
81
96
109
70
96
107
84
93
107
72
76
95
94
107
99
74
81
96
87
91
73
93
104
73
108
84
102
91
77
96
94
102
98
70
98
91
90
71
95
105
106
90
99
87
90
87
102
93
100
81
104
83
84
92
92
73
94
103
91
97
76
91
84
98
71
70
106
87
89
105
70
71
73
104
95
102
86
99
96
108
87
72
81
101
98
84
104
89
91
98
97
76
95
75
99
72
90
79
86
89
86
98
74
89
94
98
73
102
90
72
88
89
99
101
89
104
97
103
93
87
82
101
104
74
94
79
78
94
89
73
85
73
89
74
74
94
81
95
96
109
85
93
86
75
95
88
73
78
98
85
90
84
92
103
89
85
105
104
90
85
101
109
87
103
106
104
78
94
100
72
76
109
89
75
82
82
77
79
80
78
92
102
95
73
73
96
107
99
87
77
97
102
78
99
108
90
89
76
78
97
85
84
102
109
76
82
101
70
99
101
70
80
105
81
85
76
89
105
102
94
81
103
90
72
100
106
109
77
85
72
75
87
102
108
93
85
103
89
102
95
82
88
107
92
103
86
83
103
76
82
75
85
71
93
101
98
71
83
81
101
87
89
100
105
101
72
81
77
106
89
102
93
106
72
96
74
103
86
81
81
97
82
105
80
97
88
106
102
102
77
89
83
103
74
90
77
74
71
83
76
93
73
108
97
91
71
76
99
97
97
88
89
97
98
88
87
103
104
98
99
74
73
100
95
77
81
76
84
87
89
105
76
72
90
80
81
77
82
80
77
85
70
95
73
84
81
88
98
96
84
77
105
83
79
106
97
89
70
106
78
90
71
102
100
98
99
82
70
103
108
90
105
91
78
86
72
90
104
82
105
78
93
97
103
89
70
107
82
90
98
76
108
77
89
103
93
92
101
91
105
82
90
92
80
74
96
93
102
83
103
77
100
103
106
88
87
108
94
72
104
74
85
83
92
102
78
70
93
70
96
98
72
94
95
102
104
107
85
109
99
86
101
90
83
92
92
89
96
91
72
88
76
71
94
70
72
86
103
98
109
72
75
103
109
91
73
86
82
102
92
93
71
101
82
79
87
100
106
85
82
87
92
99
103
74
102
85
86
76
99
91
101
106
86
91
78
73
80
94
103
83
71
102
98
78
87
79
94
81
93
82
70
105
105
98
96
107
100
81
104
106
83
106
102
91
107
101
85
95
85
102
70
82
107
70
101
90
100
79
89
81
100
98
90
102
80
92
70
81
81
96
85
102
95
78
102
108
87
101
97
87
80
92
94
82
98
80
70
73
96
81
81
101
88
77
103
73
81
81
107
101
100
93
77
105
70
79
70
85
93
107
98
71
72
98
105
76
92
81
102
82
100
108
108
109
81
82
85
73
99
89
70
72
86
85
79
107
96
86
71
94
74
104
72
72
102
88
86
72
72
91
101
78
96
88
108
89
70
81
109
77
94
101
103
104
71
90
93
76
87
98
104
103
105
83
90
73
105
108
109
70
87
109
76
70
75
86
103
89
96
74
93
94
107
77
85
77
102
107
86
84
88
91
88
95
104
93
106
108
82
96
70
78
96
95
105
72
109
76
95
100
70
86
103
76
98
95
82
81
108
89
74
74
102
74
105
80
79
109
87
79
104
91
73
95
84
74
86
108
87
85
83
83
97
100
89
103
90
93
77
74
88
75
81
95
102
94
106
80
72
99
90
91
100
78
102
75
75
93
106
84
73
102
99
102
88
108
101
78
76
86
79
90
75
105
92
91
99
95
107
96
96
103
89
72
70
79
101
104
76
80
92
102
90
105
103
85
100
78
106
75
87
75
94
95
76
99
105
94
107
102
84
80
82
74
77
70
101
88
94
95
80
107
94
92
99
85
71
88
109
99
72
84
100
98
83
106
108
74
81
96
70
105
85
95
91
99
70
77
90
73
105
80
94
103
87
92
75
91
99
70
98
75
78
106
99
77
94
106
90
101
84
80
102
91
86
103
70
75
93
92
92
89
87
98
87
76
79
103
99
82
83
97
84
76
102
101
107
76
95
97
79
108
75
80
96
89
103
78
105
104
96
108
76
104
86
95
106
72
70
108
98
82
103
79
98
96
103
84
76
109
87
101
75
88
84
86
95
101
104
101
84
92
97
85
81
86
71
109
88
77
100
77
81
83
71
81
93
102
97
105
88
106
108
87
109
104
105
99
88
70
105
108
80
103
86
103
76
92
99
93
96
90
73
80
80
70
75
86
100
79
92
106
100
99
72
103
70
108
96
94
86
108
90
90
77
79
89
106
109
81
104
71
99
88
93
70
86
98
84
72
80
81
96
80
107
70
81
85
77
85
99
73
71
88
76
97
82
94
96
93
91
77
96
106
105
85
88
71
92
95
88
77
72
102
70
75
82
109
73
104
99
106
97
98
75
81
93
87
96
99
77
82
94
89
98
72
81
83
82
83
97
86
88
70
85
78
76
83
76
88
95
98
103
99
98
74
99
95
71
77
86
87
79
79
80
91
77
79
76
82
108
89
70
94
109
83
87
80
75
79
103
93
107
105
82
81
93
105
79
75
88
83
77
97
70
101
102
70
91
104
81
73
92
83
82
95
93
84
93
100
84
73
91
86
84
102
108
98
92
71
102
100
82
88
108
73
90
100
75
87
75
83
97
88
99
87
86
82
82
89
80
90
77
95
73
74
92
73
108
89
102
84
89
82
83
94
84
104
91
91
77
72
85
96
99
95
74
86
82
86
99
81
103
75
104
106
73
98
74
73
99
99
83
71
87
102
93
99
109
84
97
75
100
72
105
70
80
71
79
104
101
83
104
77
83
70
83
89
74
101
86
96
72
90
83
89
73
87
95
104
86
72
84
101
105
104
95
103
104
78
76
84
104
106
88
85
107
91
96
86
109
91
72
108
100
85
79
106
86
101
81
77
96
81
108
87
100
79
87
105
106
71
88
92
90
90
77
81
96
107
86
79
105
76
73
94
70
100
101
98
71
81
91
82
74
97
89
73
84
101
97
77
94
79
107
102
84
83
94
73
98
92
76
78
87
105
95
94
87
72
70
105
100
89
109
87
77
71
76
93
73
98
94
82
70
72
84
91
85
93
83
76
96
105
84
89
71
105
83
108
95
88
106
70
92
96
95
107
96
99
99
73
93
87
108
106
87
81
85
91
78
89
92
92
99
95
93
72
96
100
85
79
93
85
98
107
104
107
81
95
100
86
103
87
70
83
76
99
108
75
101
102
78
102
81
95
74
104
87
85
99
107
102
96
89
77
76
70
103
84
107
107
89
103
81
93
76
86
79
87
74
101
100
107
78
101
99
94
70
99
82
86
95
85
84
95
76
90
90
71
106
74
109
103
94
70
71
83
96
89
91
76
76
79
90
84
94
92
80
80
70
89
102
85
100
74
73
108
94
92
98
96
96
101
72
99
75
92
91
91
73
99
106
82
80
105
71
79
85
77
105
71
83
104
91
72
92
91
75
95
70
89
102
88
90
78
82
86
97
88
108
108
96
92
106
107
71
108
84
101
84
72
95
105
92
107
73
104
109
71
92
72
93
91
109
94
87
76
108
73
104
98
73
85
109
93
93
78
80
95
79
85
98
91
88
103
90
79
97
84
95
94
83
102
91
81
87
75
104
103
71
108
88
75
92
87
79
101
106
74
75
99
81
81
72
104
70
105
101
86
97
70
83
97
88
106
87
100
99
71
109
96
81
95
79
105
84
106
95
76
89
72
106
78
99
95
77
87
87
103
84
103
106
84
72
71
106
92
81
99
91
74
93
78
100
74
72
79
89
94
92
106
82
104
82
98
75
96
98
70
101
73
104
82
85
87
104
96
107
92
82
70
70
84
97
89
87
92
105
106
91
106
103
96
84
105
102
103
90
84
87
95
94
70
96
96
104
79
96
92
90
74
98
85
100
84
88
82
105
103
98
92
90
96
88
109
97
101
84
83
97
107
99
82
76
71
93
80
93
84
74
108
103
77
96
73
77
91
83
72
84
89
101
76
78
86
94
106
97
98
92
88
95
93
70
85
86
84
78
74
75
102
78
95
98
102
93
97
98
73
90
107
71
99
79
75
103
85
73
102
74
89
87
78
75
105
74
98
76
85
84
71
105
84
92
78
92
93
96
94
73
78
84
75
98
77
98
103
102
92
82
97
77
82
109
83
79
88
92
96
94
98
103
102
105
87
83
96
83
74
106
103
91
82
81
81
77
94
86
106
97
77
89
83
106
101
77
81
98
99
71
96
92
106
70
87
106
79
91
77
80
85
91
84
88
84
82
84
96
104
107
84
97
102
109
93
105
106
80
87
92
71
73
105
70
103
90
74
100
76
85
85
83
109
90
101
73
109
103
77
75
89
104
107
79
89
87
78
83
88
93
86
101
71
106
91
84
71
98
80
71
70
81
97
109
76
95
83
76
101
71
107
94
82
109
81
81
76
87
70
94
72
93
77
85
106
83
94
78
91
103
96
83
84
86
72
100
80
100
101
91
84
75
94
81
107
83
102
97
96
83
70
108
106
88
100
108
71
108
107
101
90
88
91
96
95
85
98
98
90
70
107
100
82
106
70
109
99
82
88
77
108
78
109
107
86
109
83
74
103
100
89
71
70
94
80
94
95
101
96
85
105
80
86
89
79
101
92
88
92
81
105
79
90
102
107
93
76
100
99
87
90
84
96
77
77
80
103
109
100
79
97
103
103
72
76
105
90
84
95
100
108
89
97
86
88
84
73
81
75
94
83
99
80
99
73
72
104
95
88
85
94
90
85
71
90
86
72
84
100
102
71
71
84
97
102
106
79
87
86
102
101
83
91
87
88
82
91
78
87
75
108
103
92
79
101
84
107
107
103
97
93
91
85
91
76
90
90
106
103
88
106
70
96
98
76
89
76
104
70
73
82
107
82
89
72
102
71
88
74
102
91
106
109
101
72
102
75
75
108
80
96
94
70
88
93
108
101
91
98
102
99
79
73
88
74
109
88
102
86
98
79
73
83
94
107
81
72
90
83
77
93
91
81
82
73
108
99
73
70
83
107
92
73
98
75
81
77
89
77
95
103
106
82
105
72
77
81
98
86
102
82
80
92
99
100
107
107
82
108
88
104
75
79
89
96
89
97
103
90
79
103
83
100
88
82
80
105
80
93
70
81
81
89
99
97
80
79
106
84
82
94
81
106
81
85
109
89
100
75
73
105
93
77
87
92
108
80
78
78
77
72
93
81
93
80
95
76
83
91
71
101
84
74
109
108
79
103
74
90
107
105
104
91
101
73
78
80
78
108
91
71
93
74
96
70
97
95
107
94
74
104
105
77
104
104
76
79
100
83
77
70
102
75
100
95
78
81
78
86
103
86
78
93
104
107
71
89
93
78
80
86
94
77
73
100
71
88
77
90
95
106
89
98
85
80
76
101
80
78
103
104
109
94
79
87
87
98
73
97
97
108
101
100
96
84
70
99
103
106
105
101
90
76
84
80
96
82
97
85
83
72
74
94
105
76
79
93
72
96
102
71
85
74
91
89
70
83
73
89
81
93
71
81
76
96
78
95
103
95
106
104
87
78
87
87
108
103
86
104
76
101
104
90
73
72
74
76
73
75
105
71
70
74
96
108
109
104
104
72
98
80
104
77
100
82
77
107
92
96
75
95
108
89
76
74
94
102
81
109
90
84
79
75
100
89
83
105
101
98
106
105
89
84
74
109
98
106
109
90
75
79
103
82
103
92
101
87
82
92
104
77
88
109
99
79
101
106
89
101
108
103
75
100
77
109
73
87
73
103
102
84
87
76
73
90
92
77
97
82
102
73
80
83
98
104
84
91
87
101
74
90
91
87
83
81
108
89
76
99
89
73
73
74
98
86
106
78
109
86
104
106
107
102
73
103
82
91
98
93
100
73
85
79
104
106
108
70
87
89
76
97
82
96
109
76
99
86
97
86
97
77
75
71
103
91
106
106
79
71
94
87
107
71
107
108
100
80
84
101
87
77
97
106
85
99
99
104
105
109
95
91
88
91
82
74
108
88
92
91
105
108
80
80
84
95
107
98
96
104
83
78
82
101
98
85
72
107
75
80
102
89
92
75
81
72
84
106
96
77
79
74
96
106
96
73
102
81
102
104
98
91
98
71
90
97
72
82
76
89
76
99
97
90
103
105
102
75
82
79
109
105
90
71
108
96
100
89
107
93
91
78
84
105
80
82
78
80
98
90
82
75
70
98
106
90
72
106
94
86
83
106
90
94
93
99
101
88
79
72
74
99
99
93
76
98
71
70
94
75
73
108
73
89
107
84
81
87
73
80
74
103
104
90
78
106
89
77
83
88
79
70
83
98
78
108
76
86
100
100
81
82
108
72
104
101
104
89
102
75
103
90
88
103
104
87
83
94
102
94
78
97
92
84
94
91
91
91
74
92
105
99
81
93
108
95
105
93
72
89
73
92
77
72
97
94
108
81
104
98
99
100
78
107
72
89
108
70
82
107
72
85
94
75
109
92
81
72
83
82
73
101
99
99
81
75
101
99
100
105
85
109
97
97
107
85
88
78
107
75
77
107
109
105
74
101
109
78
98
99
109
84
75
76
98
79
107
90
93
104
103
94
90
73
72
109
86
73
87
105
76
97
81
83
89
72
70
71
73
77
87
104
97
107
95
87
103
82
100
94
95
99
102
97
95
92
103
79
109
101
82
108
72
90
81
83
108
98
98
76
105
71
90
96
70
103
101
108
107
82
108
109
84
77
96
105
77
79
86
71
98
82
100
87
93
84
83
84
78
102
93
73
78
93
88
74
92
95
100
93
100
96
106
81
77
86
70
94
74
106
94
101
91
104
91
72
85
72
103
109
71
70
103
96
102
86
84
71
83
77
77
98
76
76
71
82
105
86
79
80
87
108
95
81
74
103
79
81
94
86
86
71
95
88
106
104
74
76
100
78
100
87
95
81
105
94
82
94
103
84
76
96
76
71
88
92
70
86
105
106
106
101
96
89
102
93
99
73
107
85
80
87
101
94
91
108
77
93
76
79
97
82
108
101
90
105
106
102
94
70
89
89
79
79
92
91
92
84
77
108
87
90
89
74
79
97
72
98
86
99
84
76
78
70
73
103
87
99
76
77
84
95
94
72
79
74
99
101
74
87
93
80
104
75
79
104
98
90
103
76
94
70
99
102
102
97
96
103
101
109
103
99
71
105
73
78
81
79
76
72
78
92
70
109
108
104
81
104
103
79
104
89
76
87
97
92
104
75
83
76
82
94
74
71
103
84
97
100
85
70
72
99
106
85
94
84
109
105
88
82
100
97
106
81
80
70
93
86
94
75
98
94
96
88
94
82
92
96
71
97
99
71
78
94
100
96
101
100
81
93
75
95
107
96
94
77
106
106
88
108
79
107
76
78
94
81
99
99
94
100
74
85
107
105
71
90
70
93
84
101
98
93
107
86
82
100
91
99
90
77
105
103
76
73
106
91
76
82
80
106
93
97
107
73
101
70
107
86
78
78
75
87
79
73
87
87
107
84
98
78
88
93
89
78
99
86
84
93
105
107
102
87
105
95
106
91
105
100
73
90
86
97
89
99
96
89
96
107
77
106
106
107
108
83
95
74
109
90
89
92
103
84
76
83
90
86
102
93
79
100
81
95
101
104
87
105
85
109
94
73
71
76
76
84
70
103
76
98
98
92
89
105
93
109
99
101
89
109
80
87
95
77
100
75
99
73
92
103
70
100
104
97
99
99
95
72
87
89
79
102
107
70
93
75
75
109
106
77
108
94
79
80
90
89
90
73
87
93
73
103
99
80
102
75
88
95
84
71
77
104
74
70
70
86
93
75
82
93
82
108
77
71
100
96
78
70
75
102
75
75
94
72
92
87
90
96
86
72
99
82
89
101
74
91
92
93
80
80
72
101
75
81
106
73
70
87
76
70
93
84
86
101
106
90
89
98
89
79
101
77
75
88
76
80
89
92
102
83
95
82
102
109
92
108
101
92
70
94
77
95
99
98
80
73
77
70
83
72
94
89
109
79
109
73
108
97
71
81
99
104
89
81
76
77
101
78
92
88
76
76
87
81
99
81
106
80
96
107
104
91
103
101
102
102
72
102
91
104
75
98
98
107
79
94
91
92
95
94
89
92
95
89
92
70
101
87
74
98
75
106
81
73
84
75
105
90
101
94
80
93
102
96
77
70
97
80
97
107
98
100
91
89
71
94
83
77
75
79
97
95
93
81
71
75
78
91
84
99
99
73
82
87
88
83
75
95
86
87
71
90
93
97
81
72
102
105
108
101
106
78
79
78
103
82
80
81
101
86
96
72
83
80
75
79
72
97
100
79
95
100
70
81
73
92
93
70
105
101
102
71
109
70
77
97
89
93
78
99
72
107
94
75
109
74
82
77
102
92
96
77
99
86
101
72
78
93
102
70
91
79
75
107
81
94
105
70
90
88
87
89
104
74
108
98
72
79
71
73
99
99
70
107
82
93
83
102
99
84
76
103
74
73
106
89
73
70
85
102
82
77
101
82
84
92
92
102
85
71
90
91
103
79
97
71
86
74
90
93
104
98
103
96
70
106
99
96
91
103
95
97
82
99
95
71
93
104
108
87
91
107
99
106
97
103
102
83
77
83
81
75
94
102
103
82
96
91
102
89
103
80
89
70
82
91
93
88
98
70
94
76
91
74
98
95
74
91
102
93
103
99
104
81
85
89
100
93
104
83
107
109
94
81
90
95
89
76
95
101
76
103
104
103
108
93
103
74
73
91
89
70
77
71
103
95
84
90
95
97
77
90
75
73
72
106
81
98
72
94
77
86
83
98
84
78
79
74
74
107
71
80
79
93
87
73
86
84
76
89
94
70
95
96
108
88
84
84
80
72
86
97
95
74
94
87
89
74
107
84
84
82
84
73
89
100
84
72
93
74
85
86
82
83
96
102
79
81
83
71
86
105
100
94
85
99
93
87
103
75
97
80
75
94
71
94
109
97
84
85
84
79
93
106
100
105
102
99
76
75
92
97
99
101
106
76
87
71
74
104
70
104
97
96
80
81
104
88
101
85
105
86
91
100
79
108
106
72
97
103
100
103
88
108
87
107
79
92
101
95
98
101
86
107
82
91
108
89
97
86
103
80
72
78
98
81
89
92
70
80
106
99
93
77
79
79
106
100
99
77
79
106
88
91
87
74
101
97
93
79
87
72
101
106
92
90
89
77
76
99
86
105
80
102
81
109
104
90
100
97
103
103
86
98
74
76
81
102
73
99
77
74
85
71
109
98
75
100
105
82
79
88
100
74
92
72
103
103
83
94
93
71
91
106
96
93
104
103
100
95
87
104
107
76
104
82
97
97
109
91
80
78
107
107
95
77
102
106
86
82
73
74
86
97
102
71
86
108
107
76
105
101
70
80
78
91
99
105
80
104
83
71
88
74
79
84
79
80
77
75
104
88
90
71
93
86
73
109
105
87
83
76
78
79
79
83
104
88
100
77
90
109
101
97
95
102
92
100
92
108
90
107
76
87
101
91
99
101
108
92
71
94
95
86
76
70
90
98
88
99
83
92
95
80
90
72
71
97
73
90
93
104
84
90
106
104
107
80
97
95
109
85
98
97
80
82
92
106
94
100
78
100
73
73
71
83
91
108
86
109
95
79
76
94
108
89
98
90
107
86
85
92
95
87
97
71
85
89
76
107
92
98
74
75
86
89
82
84
103
94
78
88
94
98
104
108
90
87
92
103
70
83
105
108
72
98
84
81
71
82
70
89
99
99
84
87
89
78
104
101
95
108
86
75
101
99
74
83
109
85
72
109
92
89
99
103
73
70
74
87
101
101
81
108
92
103
100
73
107
87
105
100
98
73
86
86
93
106
88
83
85
90
102
109
76
96
77
76
81
84
85
81
88
107
92
99
78
78
106
82
92
108
93
97
105
98
102
97
77
80
99
92
75
70
70
103
103
70
70
100
73
107
108
95
104
75
89
103
82
81
94
103
98
86
100
102
84
97
86
76
86
108
75
78
87
105
80
107
100
93
70
79
96
92
71
72
108
101
87
104
79
71
105
99
88
84
79
90
106
93
102
70
87
79
89
72
88
84
108
105
76
76
76
101
103
102
70
94
108
106
102
86
79
73
81
101
100
95
92
92
76
79
94
96
73
103
91
91
71
78
91
96
70
108
98
102
93
89
73
95
74
72
86
81
87
101
95
100
87
109
77
85
81
93
102
74
107
94
99
95
92
103
91
105
75
108
79
73
75
77
73
76
83
98
87
104
81
85
108
81
88
104
96
109
82
74
102
84
71
92
87
76
109
88
94
100
90
84
99
88
89
107
92
76
90
77
97
109
77
89
102
84
87
96
95
92
86
75
79
70
106
71
105
74
93
88
106
81
76
92
87
89
70
90
99
73
93
75
100
78
98
71
71
93
78
75
88
105
94
98
79
95
70
73
79
72
90
103
81
104
89
109
81
85
83
106
87
105
92
83
80
107
105
97
78
91
83
75
109
85
106
86
79
88
75
73
83
104
101
86
74
88
88
78
98
92
87
108
86
85
104
109
85
102
98
78
74
72
94
95
93
105
105
87
104
97
104
80
108
88
85
108
108
90
90
88
98
109
83
103
98
109
73
74
84
78
100
95
77
98
104
80
72
82
99
94
88
106
102
85
106
81
83
97
81
70
70
105
90
82
86
83
89
81
86
81
75
90
95
99
86
74
73
77
94
91
105
74
105
91
77
80
77
106
70
102
104
108
93
99
88
73
97
73
77
81
88
83
92
75
84
90
93
95
88
86
95
91
107
99
98
76
92
98
85
85
95
97
73
84
70
70
94
107
100
104
108
108
86
78
93
89
75
109
82
107
77
107
99
73
96
105
82
100
83
89
90
72
109
85
84
86
90
72
74
87
102
72
104
83
89
108
88
108
75
82
77
92
82
101
82
78
89
85
99
76
99
103
92
93
105
87
105
105
89
75
86
87
96
106
104
70
96
100
99
107
101
92
78
108
92
99
100
90
94
79
84
84
92
92
83
81
99
81
96
102
90
94
89
82
89
109
100
109
84
95
96
88
88
72
77
89
70
70
105
109
102
93
101
76
101
87
95
103
98
82
89
109
93
74
98
79
98
73
108
104
101
108
78
73
85
104
90
100
78
100
105
79
73
97
102
75
79
72
105
102
103
106
77
94
108
70
91
79
90
86
104
94
106
75
93
95
100
83
93
100
76
104
77
71
96
98
71
107
105
79
87
101
105
74
106
80
92
90
107
90
82
109
104
97
99
77
77
98
92
97
103
75
81
103
99
103
99
105
72
98
76
109
90
102
105
97
97
109
104
87
74
87
97
85
108
71
90
97
101
73
77
107
70
71
93
107
101
85
89
100
105
97
104
105
107
87
70
80
83
83
86
100
104
80
80
79
76
81
92
71
72
78
72
88
76
97
103
75
105
90
83
77
106
96
100
75
104
72
81
109
70
75
78
89
101
99
95
89
81
102
100
87
107
103
85
96
103
97
72
79
97
93
104
76
100
86
105
100
107
107
74
98
100
77
81
94
97
97
93
86
97
96
88
106
103
85
83
100
73
103
87
87
91
80
97
104
93
85
78
99
99
87
104
87
75
80
71
84
108
106
75
107
85
101
88
103
92
96
99
83
72
90
77
76
73
73
86
105
102
107
92
72
87
107
99
74
101
102
79
106
95
78
104
74
78
86
101
102
74
104
77
109
70
108
97
70
82
81
70
103
72
105
90
84
97
80
92
109
89
93
97
88
72
77
93
82
90
83
103
88
74
92
104
99
74
75
76
99
86
104
106
91
98
95
81
77
88
70
107
71
71
70
87
71
104
102
97
99
83
100
77
100
106
78
108
100
84
72
70
101
109
94
89
76
99
93
72
86
84
77
96
97
70
73
95
78
72
82
109
94
87
89
96
75
75
84
90
96
92
75
78
99
103
91
99
106
77
74
88
76
93
76
81
106
72
70
73
93
78
97
97
89
96
81
87
99
102
71
106
95
82
107
109
94
84
86
98
93
79
95
73
89
99
92
73
82
84
84
78
109
108
83
76
95
85
85
91
86
73
102
107
98
78
98
82
109
84
104
92
94
72
100
90
76
70
70
94
105
74
101
85
85
80
71
102
77
70
77
75
107
70
75
78
72
96
86
78
96
95
81
105
85
106
89
84
94
70
72
96
96
83
87
103
77
84
71
89
77
75
73
104
99
108
108
106
106
88
72
80
103
93
105
98
96
92
78
102
77
100
74
105
78
77
107
76
102
87
73
106
70
76
73
90
93
99
99
96
103
78
80
97
107
102
96
79
73
94
83
97
99
78
102
94
108
105
89
107
79
81
86
108
73
89
100
80
81
98
94
72
79
82
78
96
83
83
85
79
87
72
71
108
104
85
90
90
104
79
96
101
104
90
94
85
85
98
84
74
88
75
101
105
74
101
97
86
79
98
90
82
83
98
83
96
74
98
96
74
100
88
105
97
89
98
81
77
90
87
95
82
81
77
90
99
105
77
74
83
80
85
101
90
99
92
95
76
75
75
94
89
72
74
109
80
107
73
94
93
104
80
78
109
92
104
92
96
99
100
105
102
109
90
71
76
81
79
75
105
107
98
109
109
74
71
90
90
77
79
103
109
104
85
72
94
81
108
90
85
72
96
78
80
86
91
87
75
85
105
95
79
80
93
92
102
76
77
105
102
96
100
90
76
105
95
79
91
89
74
77
85
73
83
81
80
100
70
71
93
102
75
82
85
108
78
85
77
78
86
105
108
107
104
96
107
75
92
97
84
83
96
101
85
85
91
82
95
86
77
101
90
76
102
85
76
79
76
102
98
70
80
108
85
94
75
104
89
87
93
95
106
96
71
105
72
92
106
80
77
100
87
90
91
71
80
104
83
95
79
104
108
94
77
80
81
97
77
108
103
76
91
73
101
70
87
99
84
70
87
92
97
70
84
102
96
96
75
99
99
94
78
83
92
109
84
94
79
101
95
90
108
106
100
71
100
95
105
81
105
76
82
102
83
109
84
105
96
94
77
94
108
75
91
95
73
84
77
86
104
89
95
91
81
74
106
73
104
91
75
92
80
70
99
102
108
73
95
107
100
97
104
105
77
79
77
91
100
74
96
88
92
77
79
71
86
107
100
94
72
72
79
76
73
106
74
108
108
88
77
107
107
105
99
75
86
81
92
97
108
87
77
107
74
82
93
86
74
85
106
79
93
72
83
81
107
106
87
95
82
76
102
98
102
95
93
85
104
89
96
95
74
100
108
104
82
71
75
88
93
105
91
108
86
91
105
75
103
101
90
88
95
108
90
96
76
90
104
87
107
71
74
102
78
87
109
104
77
92
72
84
80
78
73
85
76
79
88
81
84
75
107
95
82
80
97
77
102
107
83
73
94
92
96
102
87
106
72
80
91
90
83
108
99
100
91
82
103
94
103
100
107
109
82
108
108
73
91
89
76
105
70
106
98
79
107
70
78
101
77
99
99
88
94
86
102
107
97
98
86
71
72
100
84
90
71
87
109
70
105
91
109
92
105
108
86
96
108
80
98
95
93
72
102
94
72
98
103
100
91
71
105
99
98
97
70
75
83
87
84
72
81
108
98
84
100
101
99
80
81
82
92
104
70
78
107
100
97
90
73
70
89
79
90
73
101
83
73
94
76
86
105
77
77
85
90
98
72
70
73
102
107
85
91
88
74
70
99
99
89
101
90
106
76
107
102
97
81
81
71
101
92
90
85
87
107
83
102
93
91
87
87
90
91
73
104
72
87
72
85
90
104
90
91
102
98
90
88
91
102
76
77
96
73
76
104
93
85
105
77
70
86
87
94
85
104
77
99
79
103
76
99
98
86
90
75
84
84
102
102
96
92
92
78
101
101
91
89
72
105
102
72
107
89
104
101
78
97
91
99
109
72
106
82
90
99
85
74
84
75
77
96
95
84
105
95
78
94
97
89
103
105
81
87
78
77
72
109
85
80
73
104
83
92
81
100
98
72
75
82
77
93
88
79
97
108
99
91
75
70
100
72
106
92
91
97
71
88
104
85
75
100
88
84
95
74
91
81
98
91
75
73
94
100
103
99
108
85
98
80
74
76
109
93
106
106
108
70
100
108
80
78
79
93
80
76
92
89
94
80
75
101
87
79
90
102
74
91
74
104
101
78
93
72
92
96
70
107
108
79
71
87
72
103
89
83
81
91
103
91
99
74
100
71
93
93
86
77
89
72
91
99
109
78
107
81
73
106
78
103
82
84
96
99
95
105
73
70
74
71
90
95
97
70
101
87
78
106
84
87
83
97
85
79
74
88
101
97
76
107
82
102
104
92
109
103
78
100
72
78
85
96
92
109
74
101
95
103
98
71
84
70
73
87
106
101
108
75
106
103
84
90
107
104
84
80
96
75
85
79
109
83
88
79
102
109
108
79
73
86
104
76
108
81
75
89
82
100
90
88
82
76
107
80
72
77
103
96
96
94
84
74
97
101
84
84
103
87
80
83
83
75
82
88
94
96
105
72
75
75
78
71
77
86
95
92
90
109
105
107
78
74
83
71
82
92
73
102
87
92
78
106
70
80
86
76
81
107
91
100
79
92
86
86
84
70
80
71
71
72
82
81
73
94
106
84
90
104
94
77
94
90
70
91
96
92
93
79
94
90
80
108
101
86
75
104
78
92
72
81
105
87
89
91
81
90
104
89
73
90
109
91
101
82
80
95
92
95
79
98
92
93
82
80
70
105
85
83
107
73
86
73
72
96
95
73
78
79
102
79
86
80
100
94
83
108
83
77
87
81
108
85
99
108
103
82
73
77
99
88
84
107
89
71
91
109
76
82
97
75
100
85
97
84
84
102
80
73
80
70
75
90
83
95
91
79
80
71
70
74
79
78
72
99
106
93
98
100
96
79
73
79
106
84
82
84
77
76
93
87
87
105
103
98
109
88
85
95
84
106
85
96
103
93
95
82
89
72
93
71
99
104
103
99
80
92
73
98
78
103
73
80
72
87
92
105
74
74
104
106
85
89
95
87
92
95
106
79
102
75
84
76
109
83
97
72
101
92
79
77
89
80
100
75
83
80
80
71
82
82
100
97
89
76
107
103
94
90
96
81
96
92
88
93
109
99
97
76
106
109
92
100
84
79
95
95
87
99
77
100
77
75
82
85
97
92
106
81
101
86
81
74
105
75
89
73
108
86
71
80
87
86
102
73
104
91
105
78
93
89
75
105
107
82
89
108
101
97
74
107
80
100
86
81
95
105
85
88
90
101
105
77
84
96
87
75
93
101
98
87
101
89
73
92
91
90
105
88
109
82
109
102
97
107
86
94
99
86
102
90
79
79
73
98
89
99
86
106
75
100
74
74
79
100
103
78
86
97
91
95
73
72
75
99
86
93
81
72
108
73
91
103
82
77
79
102
70
86
100
70
90
73
90
79
99
89
93
72
92
79
70
83
72
82
90
88
104
79
79
81
84
74
93
87
85
94
89
91
98
105
96
79
97
76
73
102
89
97
84
104
77
93
90
75
99
105
92
95
78
91
89
96
106
91
106
74
78
107
81
104
86
85
98
109
97
76
88
95
88
76
90
96
81
91
88
87
74
84
81
86
106
89
102
85
101
105
85
96
102
75
102
101
74
74
98
104
74
81
102
106
89
97
106
71
103
80
94
79
101
100
87
79
74
105
95
105
94
95
83
97
109
79
105
106
86
79
89
88
76
100
91
71
92
80
73
84
72
109
87
99
92
89
96
73
87
98
75
74
93
75
102
86
74
79
89
95
73
85
86
86
86
93
79
86
97
107
73
105
92
73
80
107
86
74
83
108
90
76
90
81
81
77
93
85
87
74
94
108
101
75
89
104
98
91
99
72
87
71
89
77
99
109
83
87
101
79
81
88
72
88
84
86
100
94
88
87
74
80
104
97
96
74
99
80
102
71
78
99
104
103
98
72
109
73
103
71
87
82
81
93
108
94
106
98
92
70
80
101
76
107
88
70
107
106
99
92
99
89
96
80
98
96
107
82
97
108
101
75
77
88
99
83
84
77
91
75
106
84
84
109
109
89
93
107
86
90
97
94
81
87
98
72
102
109
100
99
81
94
99
99
94
92
103
82
82
102
103
83
70
105
84
105
85
82
72
88
96
99
86
76
80
76
107
97
92
84
85
107
75
88
75
88
84
76
86
90
76
104
87
72
80
84
97
104
91
79
71
86
83
92
73
96
95
78
91
93
75
94
79
75
80
98
77
96
93
96
71
75
91
108
98
92
87
78
90
73
89
95
108
91
101
109
98
97
103
86
83
91
101
74
73
105
72
107
87
108
82
73
75
93
94
73
88
78
77
102
87
70
77
99
103
81
103
88
98
86
72
107
98
98
88
72
108
70
74
92
99
77
107
103
96
73
87
96
90
70
80
85
80
86
88
107
70
102
105
75
104
105
90
78
88
108
93
74
70
90
103
101
105
89
104
105
81
101
108
81
78
83
105
83
86
89
90
86
75
92
83
86
108
81
77
70
70
96
100
93
97
86
80
93
87
106
89
72
91
83
102
83
71
87
72
87
96
87
74
85
78
81
84
106
70
70
97
108
98
94
93
84
85
104
99
92
87
103
77
99
96
89
77
78
82
89
108
82
103
80
74
103
101
71
101
103
87
72
93
79
95
102
87
101
88
98
104
75
105
72
85
83
86
97
97
76
105
89
79
99
82
76
80
101
98
93
102
84
94
103
82
104
82
96
108
72
84
83
97
90
83
100
89
103
88
97
82
98
75
79
87
91
89
75
93
70
108
83
103
97
76
92
96
103
77
76
90
102
105
90
108
104
79
85
105
72
75
83
103
99
73
100
101
89
108
101
97
99
92
97
104
72
88
77
103
75
87
74
90
87
77
81
107
94
92
98
93
94
97
78
105
77
81
70
105
70
92
91
83
84
81
71
89
79
74
75
103
93
104
75
92
82
82
103
92
91
107
107
76
104
90
90
72
88
85
102
107
73
96
91
77
96
91
85
97
86
106
70
87
84
105
109
95
88
103
92
96
96
82
88
96
86
84
94
92
85
85
76
82
99
72
70
109
88
74
99
105
94
81
95
96
97
81
105
77
88
77
80
86
77
84
89
79
105
89
100
85
92
87
81
95
92
93
101
84
83
79
89
81
70
78
84
90
91
89
80
92
75
91
107
80
97
86
103
74
89
96
107
98
76
101
107
90
99
70
70
74
90
81
103
105
71
81
103
93
83
87
72
77
97
89
109
84
108
106
80
80
86
98
100
100
102
79
108
107
73
75
91
87
84
89
102
97
73
91
70
73
105
93
75
104
73
71
94
91
103
87
93
75
79
101
109
75
97
83
106
90
109
77
107
82
98
101
108
72
91
99
75
85
76
83
87
76
83
78
94
85
74
101
103
89
92
75
71
95
70
83
87
71
80
91
85
109
76
71
82
103
78
105
109
90
108
79
86
75
104
77
93
106
100
109
108
91
102
92
82
88
76
79
82
105
97
101
75
70
89
87
73
78
97
101
92
73
90
107
87
107
104
84
84
97
70
86
102
73
109
87
102
77
76
101
83
105
73
108
84
102
89
83
95
109
101
104
80
104
94
102
74
101
106
84
73
84
103
96
83
83
96
76
108
88
102
79
105
95
88
103
88
109
78
85
78
76
82
73
88
87
72
105
87
89
87
84
85
105
88
76
85
73
71
91
74
79
81
108
70
99
109
102
95
90
101
93
101
99
79
81
86
96
102
107
85
79
79
85
73
89
89
73
98
82
108
85
90
83
93
101
89
85
97
81
73
79
81
89
75
89
100
71
98
105
83
92
94
70
105
93
84
108
81
87
108
103
93
81
82
100
76
73
98
92
107
73
86
82
71
107
82
87
106
91
98
107
77
92
74
95
77
102
109
105
81
95
90
88
82
103
108
73
107
88
105
81
76
109
94
76
74
74
89
85
73
101
95
70
108
76
79
91
108
95
86
106
72
87
84
77
108
87
103
76
101
98
86
84
91
86
73
101
72
95
88
75
88
94
73
74
82
107
86
72
86
73
86
77
95
82
98
94
91
74
107
107
104
96
82
101
97
82
88
92
97
89
103
80
96
85
88
79
76
82
95
86
90
91
76
99
93
93
92
90
70
96
79
71
100
97
83
84
94
91
105
99
79
72
86
94
72
75
77
76
85
79
82
95
89
77
106
84
107
82
98
99
85
95
85
104
82
77
74
80
97
105
85
88
95
84
101
75
89
102
78
74
106
92
104
73
98
72
103
72
96
80
84
103
73
73
76
93
90
101
96
91
98
82
109
100
99
70
100
72
91
104
109
97
102
97
95
101
86
90
83
102
101
95
90
87
106
77
108
80
99
80
107
107
106
72
87
79
75
109
107
85
109
97
80
105
87
108
89
83
108
70
94
79
98
96
77
82
96
76
77
71
86
70
85
81
73
99
85
81
79
82
99
97
103
71
97
90
93
79
92
99
77
97
72
84
94
90
91
74
90
108
95
107
82
104
108
108
78
89
86
81
102
107
90
78
107
76
94
83
81
82
90
101
97
85
74
99
98
86
85
77
88
79
99
76
104
93
106
78
106
108
97
81
88
98
97
106
94
71
105
78
83
83
106
96
71
89
106
84
101
106
100
76
91
109
71
82
103
109
94
109
109
92
88
87
102
71
97
78
107
73
89
105
106
92
91
78
72
77
89
105
80
96
78
95
75
93
84
100
80
105
103
98
78
71
106
84
104
96
104
90
88
73
102

